0 0
0.01 -0.00569758
0.02 -0.0110365
0.03 -0.0157081
0.04 -0.0194417
0.05 -0.0220204
0.06 -0.0232927
0.07 -0.023181
0.08 -0.0216865
0.09 -0.0188442
0.1 -0.0148181
0.11 -0.00991334
0.12 -0.00441423
0.13 0.00136085
0.14 0.00707694
0.15 0.0124012
0.16 0.0170217
0.17 0.0206645
0.18 0.0230029
0.19 0.0239567
0.2 0.0234861
0.21 0.0216129
0.22 0.0184389
0.23 0.0141405
0.24 0.00895927
0.25 0.00318918
0.26 -0.00283687
0.27 -0.00872753
0.28 -0.0141246
0.29 -0.0187102
0.3 -0.0222104
0.31 -0.02441
0.32 -0.0251662
0.33 -0.0244163
0.34 -0.0221829
0.35 -0.018499
0.36 -0.0136286
0.37 -0.00788835
0.38 -0.00160644
0.39 0.00485201
0.4 0.0111042
0.41 0.01677
0.42 0.0214927
0.43 0.0249458
0.44 0.0267413
0.45 0.0268346
0.46 0.025158
0.47 0.0217387
0.48 0.0166993
0.49 0.0102544
0.5 0.00270208
0.51 -0.0055892
0.52 -0.0141888
0.53 -0.0225773
0.54 -0.0302715
0.55 -0.036815
0.56 -0.0417868
0.57 -0.0448223
0.58 -0.0456302
0.59 -0.0440076
0.6 -0.0398496
0.61 -0.0329446
0.62 -0.0236277
0.63 -0.0121497
0.64 0.00116498
0.65 0.0159122
0.66 0.0316246
0.67 0.0477894
0.68 0.0638691
0.69 0.079284
0.7 0.0934163
0.71 0.105832
0.72 0.116111
0.73 0.123905
0.74 0.128946
0.75 0.131056
0.76 0.130148
0.77 0.126227
0.78 0.119187
0.79 0.10937
0.8 0.0970937
0.81 0.0826669
0.82 0.0664355
0.83 0.0487709
0.84 0.0300557
0.85 0.0106707
0.86 -0.00901662
0.87 -0.0286283
0.88 -0.0478433
0.89 -0.0663983
0.9 -0.0840712
0.91 -0.100681
0.92 -0.116087
0.93 -0.130183
0.94 -0.142897
0.95 -0.154098
0.96 -0.163782
0.97 -0.17199
0.98 -0.178716
0.99 -0.183954
1 -0.187697
1.01 -0.189932
1.02 -0.190643
1.03 -0.189806
1.04 -0.187248
1.05 -0.183092
1.06 -0.17732
1.07 -0.169922
1.08 -0.160907
1.09 -0.150302
1.1 -0.138161
1.11 -0.124565
1.12 -0.109582
1.13 -0.0933701
1.14 -0.0761956
1.15 -0.0582901
1.16 -0.0399197
1.17 -0.0213816
1.18 -0.00300023
1.19 0.0148785
1.2 0.0318935
1.21 0.0475475
1.22 0.0615196
1.23 0.0734729
1.24 0.083073
1.25 0.0900156
1.26 0.094036
1.27 0.0949179
1.28 0.0925021
1.29 0.0866091
1.3 0.07707
1.31 0.0641957
1.32 0.0481424
1.33 0.0291502
1.34 0.00754324
1.35 -0.0162736
1.36 -0.0418194
1.37 -0.0685448
1.38 -0.0958363
1.39 -0.122946
1.4 -0.149174
1.41 -0.173829
1.42 -0.196235
1.43 -0.21575
1.44 -0.23179
1.45 -0.243848
1.46 -0.251476
1.47 -0.254016
1.48 -0.25173
1.49 -0.24465
1.5 -0.232968
1.51 -0.217031
1.52 -0.197346
1.53 -0.174564
1.54 -0.149467
1.55 -0.122926
1.56 -0.0960506
1.57 -0.069932
1.58 -0.0456082
1.59 -0.0240862
1.6 -0.00630428
1.61 0.00690516
1.62 0.0148503
1.63 0.0170108
1.64 0.0125144
1.65 0.00178215
1.66 -0.0149744
1.67 -0.0373548
1.68 -0.0647403
1.69 -0.0963118
1.7 -0.131076
1.71 -0.167901
1.72 -0.205534
1.73 -0.242522
1.74 -0.277537
1.75 -0.309347
1.76 -0.336823
1.77 -0.358981
1.78 -0.375021
1.79 -0.384353
1.8 -0.386621
1.81 -0.381204
1.82 -0.368648
1.83 -0.349527
1.84 -0.324463
1.85 -0.29425
1.86 -0.259811
1.87 -0.222154
1.88 -0.18232
1.89 -0.141331
1.9 -0.100221
1.91 -0.0598754
1.92 -0.0209353
1.93 0.0161509
1.94 0.0511493
1.95 0.0840484
1.96 0.115056
1.97 0.144583
1.98 0.173211
1.99 0.201789
2 0.231188
2.01 0.262278
2.02 0.295903
2.03 0.332831
2.04 0.37369
2.05 0.418933
2.06 0.468798
2.07 0.523649
2.08 0.582699
2.09 0.645314
2.1 0.710597
2.11 0.77741
2.12 0.844412
2.13 0.910109
2.14 0.972901
2.15 1.03089
2.16 1.08222
2.17 1.12564
2.18 1.15984
2.19 1.18373
2.2 1.1965
2.21 1.19763
2.22 1.18694
2.23 1.16457
2.24 1.13018
2.25 1.08542
2.26 1.03159
2.27 0.970025
2.28 0.902254
2.29 0.8299
2.3 0.754633
2.31 0.678102
2.32 0.601923
2.33 0.527747
2.34 0.456739
2.35 0.389878
2.36 0.327895
2.37 0.271267
2.38 0.220221
2.39 0.174745
2.4 0.13462
2.41 0.099739
2.42 0.0693227
2.43 0.0425993
2.44 0.0189117
2.45 -0.00238052
2.46 -0.0218615
2.47 -0.0400248
2.48 -0.0572485
2.49 -0.0737726
2.5 -0.0896593
2.51 -0.104909
2.52 -0.119354
2.53 -0.132736
2.54 -0.144739
2.55 -0.155025
2.56 -0.163269
2.57 -0.169195
2.58 -0.172484
2.59 -0.173077
2.6 -0.171174
2.61 -0.167009
2.62 -0.160962
2.63 -0.153549
2.64 -0.145402
2.65 -0.137239
2.66 -0.129832
2.67 -0.124168
2.68 -0.120919
2.69 -0.120724
2.7 -0.124102
2.71 -0.131409
2.72 -0.142813
2.73 -0.158274
2.74 -0.17754
2.75 -0.200243
2.76 -0.225705
2.77 -0.252884
2.78 -0.280821
2.79 -0.308493
2.8 -0.334863
2.81 -0.358936
2.82 -0.379809
2.83 -0.396723
2.84 -0.408743
2.85 -0.415755
2.86 -0.4178
2.87 -0.415073
2.88 -0.408009
2.89 -0.397264
2.9 -0.383677
2.91 -0.368231
2.92 -0.352
2.93 -0.336212
2.94 -0.321957
2.95 -0.310168
2.96 -0.301612
2.97 -0.296845
2.98 -0.296176
2.99 -0.29965
3 -0.307037
3.01 -0.317999
3.02 -0.331612
3.03 -0.346786
3.04 -0.362419
3.05 -0.377344
3.06 -0.390394
3.07 -0.400481
3.08 -0.406655
3.09 -0.408162
3.1 -0.404047
3.11 -0.39464
3.12 -0.380159
3.13 -0.361148
3.14 -0.338451
3.15 -0.313182
3.16 -0.286659
3.17 -0.260338
3.18 -0.235866
3.19 -0.214909
3.2 -0.198649
3.21 -0.188112
3.22 -0.183984
3.23 -0.186541
3.24 -0.195594
3.25 -0.210457
3.26 -0.229938
3.27 -0.252417
3.28 -0.275306
3.29 -0.295989
3.3 -0.31163
3.31 -0.31925
3.32 -0.315857
3.33 -0.298588
3.34 -0.264846
3.35 -0.211886
3.36 -0.137106
3.37 -0.0409356
3.38 0.0767292
3.39 0.215192
3.4 0.372933
3.41 0.547627
3.42 0.73618
3.43 0.934815
3.44 1.13923
3.45 1.34384
3.46 1.54337
3.47 1.73265
3.48 1.90659
3.49 2.06043
3.5 2.18985
3.51 2.29117
3.52 2.36108
3.53 2.39503
3.54 2.39475
3.55 2.36034
3.56 2.29288
3.57 2.19439
3.58 2.06774
3.59 1.91659
3.6 1.74517
3.61 1.55771
3.62 1.35997
3.63 1.15775
3.64 0.956096
3.65 0.759768
3.66 0.573118
3.67 0.399945
3.68 0.243394
3.69 0.105878
3.7 -0.00902244
3.71 -0.102299
3.72 -0.174143
3.73 -0.225363
3.74 -0.257396
3.75 -0.272211
3.76 -0.272189
3.77 -0.260005
3.78 -0.238274
3.79 -0.210047
3.8 -0.178604
3.81 -0.146475
3.82 -0.115885
3.83 -0.0886897
3.84 -0.0663263
3.85 -0.0497927
3.86 -0.0396445
3.87 -0.036481
3.88 -0.039612
3.89 -0.0482515
3.9 -0.0614916
3.91 -0.0782454
3.92 -0.0973224
3.93 -0.117502
3.94 -0.137601
3.95 -0.156497
3.96 -0.173061
3.97 -0.186699
3.98 -0.196935
3.99 -0.203519
4 -0.206417
4.01 -0.2058
4.02 -0.202011
4.03 -0.195533
4.04 -0.186863
4.05 -0.176771
4.06 -0.165979
4.07 -0.155105
4.08 -0.144695
4.09 -0.135204
4.1 -0.12697
4.11 -0.120205
4.12 -0.115001
4.13 -0.111435
4.14 -0.109192
4.15 -0.108011
4.16 -0.107566
4.17 -0.10749
4.18 -0.107404
4.19 -0.106935
4.2 -0.105742
4.21 -0.103478
4.22 -0.0998817
4.23 -0.0948623
4.24 -0.0883478
4.25 -0.0803354
4.26 -0.0708845
4.27 -0.060106
4.28 -0.0481505
4.29 -0.0351946
4.3 -0.0213762
4.31 -0.00695921
4.32 0.00787014
4.33 0.0229521
4.34 0.0381473
4.35 0.0533363
4.36 0.068416
4.37 0.0832937
4.38 0.0978678
4.39 0.112014
4.4 0.125634
4.41 0.138587
4.42 0.1507
4.43 0.161769
4.44 0.17156
4.45 0.179813
4.46 0.186258
4.47 0.190459
4.48 0.192217
4.49 0.191377
4.5 0.18778
4.51 0.181349
4.52 0.172098
4.53 0.160151
4.54 0.145749
4.55 0.129236
4.56 0.111042
4.57 0.0919509
4.58 0.0726674
4.59 0.0539631
4.6 0.0366466
4.61 0.0215312
4.62 0.00939958
4.63 0.000968497
4.64 -0.0028968
4.65 -0.00171456
4.66 0.00460816
4.67 0.0161669
4.68 0.0328617
4.69 0.0543957
4.7 0.0802825
4.71 0.109863
4.72 0.14233
4.73 0.176849
4.74 0.212163
4.75 0.247239
4.76 0.281073
4.77 0.312734
4.78 0.341404
4.79 0.366412
4.8 0.387267
4.81 0.403511
4.82 0.414977
4.83 0.422101
4.84 0.425254
4.85 0.424975
4.86 0.421941
4.87 0.416928
4.88 0.410766
4.89 0.404289
4.9 0.398379
4.91 0.393761
4.92 0.390958
4.93 0.390328
4.94 0.392037
4.95 0.396038
4.96 0.402078
4.97 0.4097
4.98 0.418275
4.99 0.426933
5 0.434708
5.01 0.440646
5.02 0.443801
5.03 0.443278
5.04 0.438293
5.05 0.428206
5.06 0.41257
5.07 0.390805
5.08 0.363101
5.09 0.329959
5.1 0.291915
5.11 0.249719
5.12 0.204298
5.13 0.15672
5.14 0.108147
5.15 0.059787
5.16 0.0130546
5.17 -0.0309933
5.18 -0.0713949
5.19 -0.107362
5.2 -0.138313
5.21 -0.163897
5.22 -0.184003
5.23 -0.198761
5.24 -0.208332
5.25 -0.213348
5.26 -0.21482
5.27 -0.213628
5.28 -0.210716
5.29 -0.207045
5.3 -0.203538
5.31 -0.201034
5.32 -0.200242
5.33 -0.201929
5.34 -0.206283
5.35 -0.213376
5.36 -0.223099
5.37 -0.235139
5.38 -0.249007
5.39 -0.264064
5.4 -0.279559
5.41 -0.294636
5.42 -0.308319
5.43 -0.319839
5.44 -0.328483
5.45 -0.333656
5.46 -0.334923
5.47 -0.332025
5.48 -0.324898
5.49 -0.313675
5.5 -0.298456
5.51 -0.279972
5.52 -0.258995
5.53 -0.236303
5.54 -0.212736
5.55 -0.189156
5.56 -0.166403
5.57 -0.145255
5.58 -0.126425
5.59 -0.110689
5.6 -0.0982027
5.61 -0.0891416
5.62 -0.083508
5.63 -0.0811365
5.64 -0.0817106
5.65 -0.0847863
5.66 -0.089823
5.67 -0.0962557
5.68 -0.103368
5.69 -0.110505
5.7 -0.117128
5.71 -0.122786
5.72 -0.12715
5.73 -0.130023
5.74 -0.131352
5.75 -0.131231
5.76 -0.129812
5.77 -0.127602
5.78 -0.12507
5.79 -0.122745
5.8 -0.121179
5.81 -0.120914
5.82 -0.122448
5.83 -0.126199
5.84 -0.132582
5.85 -0.141838
5.86 -0.153823
5.87 -0.168388
5.88 -0.185236
5.89 -0.203932
5.9 -0.223926
5.91 -0.244578
5.92 -0.265188
5.93 -0.284918
5.94 -0.30304
5.95 -0.318921
5.96 -0.332009
5.97 -0.341863
5.98 -0.348185
5.99 -0.350828
6 -0.349807
6.01 -0.345222
6.02 -0.337279
6.03 -0.326703
6.04 -0.314063
6.05 -0.299998
6.06 -0.285176
6.07 -0.270263
6.08 -0.255892
6.09 -0.242623
6.1 -0.231041
6.11 -0.221472
6.12 -0.214042
6.13 -0.208789
6.14 -0.205612
6.15 -0.204278
6.16 -0.204439
6.17 -0.205654
6.18 -0.207417
6.19 -0.209129
6.2 -0.210205
6.21 -0.210134
6.22 -0.208467
6.23 -0.20484
6.24 -0.198996
6.25 -0.190793
6.26 -0.180215
6.27 -0.167278
6.28 -0.152243
6.29 -0.13557
6.3 -0.117688
6.31 -0.0990854
6.32 -0.0802779
6.33 -0.0617873
6.34 -0.0441137
6.35 -0.0277115
6.36 -0.0131367
6.37 -0.000581504
6.38 0.00978165
6.39 0.0178641
6.4 0.0236753
6.41 0.0273166
6.42 0.028969
6.43 0.0288784
6.44 0.0273042
6.45 0.0245645
6.46 0.0210744
6.47 0.0171411
6.48 0.0130377
6.49 0.008991
6.5 0.0051722
6.51 0.00169214
6.52 -0.00139866
6.53 -0.00408309
6.54 -0.00644301
6.55 -0.00858393
6.56 -0.0106201
6.57 -0.0126688
6.58 -0.0148352
6.59 -0.0171982
6.6 -0.0197993
6.61 -0.0226358
6.62 -0.0256518
6.63 -0.0287092
6.64 -0.0316426
6.65 -0.0342499
6.66 -0.0363054
6.67 -0.0375752
6.68 -0.037835
6.69 -0.036888
6.7 -0.0345049
6.71 -0.030614
6.72 -0.0252773
6.73 -0.0185878
6.74 -0.0107289
6.75 -0.00197264
6.76 0.00732705
6.77 0.0167468
6.78 0.0258108
6.79 0.0338832
6.8 0.0404909
6.81 0.0451496
6.82 0.047426
6.83 0.046964
6.84 0.0435064
6.85 0.0369127
6.86 0.0271717
6.87 0.0143032
6.88 -0.00143373
6.89 -0.0194516
6.9 -0.0392215
6.91 -0.0601246
6.92 -0.0814789
6.93 -0.102569
6.94 -0.122676
6.95 -0.141114
6.96 -0.15704
6.97 -0.17003
6.98 -0.179743
6.99 -0.185941
7 -0.188541
7.01 -0.187617
7.02 -0.1834
7.03 -0.176267
7.04 -0.166681
7.05 -0.15524
7.06 -0.142807
7.07 -0.130115
7.08 -0.117899
7.09 -0.106856
7.1 -0.0976205
7.11 -0.0907326
7.12 -0.0866127
7.13 -0.0857425
7.14 -0.0881595
7.15 -0.0937098
7.16 -0.102192
7.17 -0.11327
7.18 -0.12649
7.19 -0.141305
7.2 -0.157103
7.21 -0.173233
7.22 -0.188956
7.23 -0.203638
7.24 -0.216731
7.25 -0.22777
7.26 -0.236402
7.27 -0.242391
7.28 -0.24563
7.29 -0.246142
7.3 -0.243968
7.31 -0.239408
7.32 -0.232962
7.33 -0.225075
7.34 -0.216238
7.35 -0.206961
7.36 -0.197751
7.37 -0.189084
7.38 -0.181384
7.39 -0.175143
7.4 -0.170537
7.41 -0.167707
7.42 -0.166708
7.43 -0.167499
7.44 -0.169948
7.45 -0.173846
7.46 -0.17892
7.47 -0.184862
7.48 -0.191296
7.49 -0.197812
7.5 -0.204062
7.51 -0.209729
7.52 -0.214538
7.53 -0.218268
7.54 -0.220758
7.55 -0.221914
7.56 -0.22161
7.57 -0.219955
7.58 -0.217082
7.59 -0.213135
7.6 -0.208293
7.61 -0.202759
7.62 -0.196747
7.63 -0.190471
7.64 -0.184138
7.65 -0.177962
7.66 -0.172099
7.67 -0.166679
7.68 -0.161798
7.69 -0.157522
7.7 -0.153889
7.71 -0.150913
7.72 -0.148587
7.73 -0.146922
7.74 -0.145871
7.75 -0.145373
7.76 -0.145388
7.77 -0.145877
7.78 -0.146808
7.79 -0.148147
7.8 -0.149864
7.81 -0.151929
7.82 -0.154333
7.83 -0.157003
7.84 -0.159886
7.85 -0.162921
7.86 -0.16603
7.87 -0.169125
7.88 -0.172103
7.89 -0.174856
7.9 -0.177251
7.91 -0.179152
7.92 -0.180475
7.93 -0.181131
7.94 -0.181055
7.95 -0.18021
7.96 -0.178593
7.97 -0.176242
7.98 -0.173232
7.99 -0.16965
8 -0.165704
8.01 -0.161594
8.02 -0.157534
8.03 -0.15375
8.04 -0.150469
8.05 -0.147907
8.06 -0.146253
8.07 -0.14569
8.08 -0.146385
8.09 -0.148298
8.1 -0.151402
8.11 -0.155603
8.12 -0.160745
8.13 -0.166611
8.14 -0.172933
8.15 -0.179402
8.16 -0.185651
8.17 -0.191307
8.18 -0.196048
8.19 -0.199575
8.2 -0.20164
8.21 -0.202054
8.22 -0.200705
8.23 -0.197564
8.24 -0.192675
8.25 -0.186084
8.26 -0.178186
8.27 -0.169301
8.28 -0.1598
8.29 -0.150098
8.3 -0.140624
8.31 -0.131804
8.32 -0.124039
8.33 -0.117763
8.34 -0.113288
8.35 -0.110728
8.36 -0.110165
8.37 -0.111582
8.38 -0.114851
8.39 -0.119751
8.4 -0.125966
8.41 -0.133107
8.42 -0.140729
8.43 -0.148271
8.44 -0.155245
8.45 -0.161188
8.46 -0.165685
8.47 -0.168391
8.48 -0.169048
8.49 -0.167501
8.5 -0.163637
8.51 -0.157484
8.52 -0.149394
8.53 -0.139678
8.54 -0.128731
8.55 -0.117015
8.56 -0.105031
8.57 -0.0932981
8.58 -0.0823206
8.59 -0.0726831
8.6 -0.0647587
8.61 -0.0588133
8.62 -0.0550363
8.63 -0.053501
8.64 -0.0541608
8.65 -0.0568512
8.66 -0.0612979
8.67 -0.0671464
8.68 -0.0739566
8.69 -0.0811189
8.7 -0.0881091
8.71 -0.0944123
8.72 -0.0995504
8.73 -0.103108
8.74 -0.104753
8.75 -0.104256
8.76 -0.101378
8.77 -0.0961808
8.78 -0.0889073
8.79 -0.0798233
8.8 -0.0692911
8.81 -0.0577507
8.82 -0.0456956
8.83 -0.0336475
8.84 -0.0221284
8.85 -0.0117694
8.86 -0.00293582
8.87 0.00403133
8.88 0.00889096
8.89 0.0115137
8.9 0.0118875
8.91 0.0101176
8.92 0.00641934
8.93 0.00105727
8.94 -0.005537
8.95 -0.0128193
8.96 -0.020306
8.97 -0.0275154
8.98 -0.033995
8.99 -0.0393452
9 -0.0432421
9.01 -0.0454541
9.02 -0.0457089
9.03 -0.0441249
9.04 -0.04085
9.05 -0.036107
9.06 -0.0302068
9.07 -0.0235302
9.08 -0.016505
9.09 -0.00958156
9.1 -0.00323093
9.11 0.00204613
9.12 0.00594689
9.13 0.0082062
9.14 0.00865493
9.15 0.00723004
9.16 0.00397868
9.17 -0.000943809
9.18 -0.00728202
9.19 -0.014736
9.2 -0.0228084
9.21 -0.0310077
9.22 -0.0388621
9.23 -0.0459138
9.24 -0.0517456
9.25 -0.0560042
9.26 -0.0584208
9.27 -0.0588087
9.28 -0.0569591
9.29 -0.0531324
9.3 -0.0475272
9.31 -0.0404451
9.32 -0.0322751
9.33 -0.0234736
9.34 -0.0145409
9.35 -0.00599482
9.36 0.00158891
9.37 0.00768843
9.38 0.0119565
9.39 0.0140903
9.4 0.0138917
9.41 0.0112778
9.42 0.00628505
9.43 -0.000931731
9.44 -0.0101076
9.45 -0.0209823
9.46 -0.0329384
9.47 -0.0454616
9.48 -0.0580242
9.49 -0.0701019
9.5 -0.0812002
9.51 -0.0908781
9.52 -0.0987702
9.53 -0.10453
9.54 -0.10792
9.55 -0.109039
9.56 -0.10797
9.57 -0.1049
9.58 -0.100106
9.59 -0.093946
9.6 -0.0868287
9.61 -0.0791981
9.62 -0.0715345
9.63 -0.0643162
9.64 -0.0579291
9.65 -0.0526956
9.66 -0.0488594
9.67 -0.0465754
9.68 -0.0459035
9.69 -0.0468085
9.7 -0.0491861
9.71 -0.0528752
9.72 -0.0574795
9.73 -0.062669
9.74 -0.0680895
9.75 -0.0733834
9.76 -0.0782106
9.77 -0.082267
9.78 -0.0853014
9.79 -0.0870534
9.8 -0.0874342
9.81 -0.0864787
9.82 -0.0842541
9.83 -0.0809003
9.84 -0.0766196
9.85 -0.071664
9.86 -0.0663184
9.87 -0.0608843
9.88 -0.0557063
9.89 -0.0510588
9.9 -0.0471729
9.91 -0.0442267
9.92 -0.0423359
9.93 -0.0415484
9.94 -0.0418429
9.95 -0.0431315
9.96 -0.0452927
9.97 -0.048107
9.98 -0.0512903
9.99 -0.0545846
10 -0.0577313
10.01 -0.0604865
10.02 -0.0626364
10.03 -0.0640102
10.04 -0.0644901
10.05 -0.0639424
10.06 -0.0624473
10.07 -0.0601006
10.08 -0.0570411
10.09 -0.0534545
10.1 -0.0495619
10.11 -0.0456057
10.12 -0.041834
10.13 -0.0385025
10.14 -0.0358725
10.15 -0.034077
10.16 -0.0332283
10.17 -0.033379
10.18 -0.0345184
10.19 -0.0365724
10.2 -0.0394073
10.21 -0.0428369
10.22 -0.04664
10.23 -0.0505167
10.24 -0.0541868
10.25 -0.0573865
10.26 -0.0598745
10.27 -0.0614466
10.28 -0.0619477
10.29 -0.0612818
10.3 -0.0594071
10.31 -0.0562859
10.32 -0.0521399
10.33 -0.047149
10.34 -0.0415434
10.35 -0.035591
10.36 -0.0295824
10.37 -0.0238147
10.38 -0.018575
10.39 -0.0141742
10.4 -0.0108485
10.41 -0.00871061
10.42 -0.00784435
10.43 -0.00826189
10.44 -0.00990265
10.45 -0.0126359
10.46 -0.0162674
10.47 -0.0205492
10.48 -0.0251967
10.49 -0.0298384
10.5 -0.0341517
10.51 -0.0378303
10.52 -0.0405976
10.53 -0.0422228
10.54 -0.0425328
10.55 -0.0414221
10.56 -0.038811
10.57 -0.0347198
10.58 -0.0293706
10.59 -0.0229628
10.6 -0.0157508
10.61 -0.0080311
10.62 -0.000126921
10.63 0.00762855
10.64 0.014909
10.65 0.021335
10.66 0.0266649
10.67 0.0307187
10.68 0.0333635
10.69 0.0345372
10.7 0.0342499
10.71 0.0325833
10.72 0.0296847
10.73 0.0257455
10.74 0.0210031
10.75 0.0158232
10.76 0.0105098
10.77 0.00536553
10.78 0.000676965
10.79 -0.00329919
10.8 -0.0063477
10.81 -0.00830404
10.82 -0.00898856
10.83 -0.00838256
10.84 -0.00655714
10.85 -0.00359441
10.86 0.000374966
10.87 0.00518086
10.88 0.0106244
10.89 0.0164898
10.9 0.0225563
10.91 0.0285902
10.92 0.0343865
10.93 0.0397845
10.94 0.0446592
10.95 0.0489254
10.96 0.0525393
10.97 0.0554974
10.98 0.0578333
10.99 0.0595925
11 0.0608737
11.01 0.0618137
11.02 0.0625261
11.03 0.0631208
11.04 0.0636963
11.05 0.0643331
11.06 0.0650882
11.07 0.0659924
11.08 0.067059
11.09 0.0682476
11.1 0.0695034
11.11 0.0707558
11.12 0.0719226
11.13 0.072917
11.14 0.0736548
11.15 0.0740623
11.16 0.0740704
11.17 0.0736256
11.18 0.0727517
11.19 0.0714745
11.2 0.0698479
11.21 0.0679515
11.22 0.0658873
11.23 0.0637734
11.24 0.0617379
11.25 0.0599334
11.26 0.0584884
11.27 0.0575033
11.28 0.0570631
11.29 0.0572251
11.3 0.0580154
11.31 0.0594265
11.32 0.0614173
11.33 0.0639191
11.34 0.0668476
11.35 0.0700335
11.36 0.0733348
11.37 0.0766034
11.38 0.0796933
11.39 0.0824686
11.4 0.0848109
11.41 0.0866252
11.42 0.0878135
11.43 0.0883449
11.44 0.0882517
11.45 0.0875708
11.46 0.0863669
11.47 0.0847279
11.48 0.0827586
11.49 0.0805732
11.5 0.0782883
11.51 0.0760248
11.52 0.0738853
11.53 0.0719442
11.54 0.070252
11.55 0.0688327
11.56 0.0676831
11.57 0.0667748
11.58 0.066057
11.59 0.0654629
11.6 0.0649047
11.61 0.0642931
11.62 0.0635519
11.63 0.0626178
11.64 0.0614473
11.65 0.0600219
11.66 0.0583516
11.67 0.0564767
11.68 0.0544643
11.69 0.0524313
11.7 0.0505028
11.71 0.0488136
11.72 0.0475027
11.73 0.0467033
11.74 0.0465331
11.75 0.0470845
11.76 0.0484312
11.77 0.0506318
11.78 0.0535862
11.79 0.0572048
11.8 0.0613498
11.81 0.0658394
11.82 0.0704549
11.83 0.0749494
11.84 0.0790604
11.85 0.0824685
11.86 0.0849086
11.87 0.0861853
11.88 0.0861225
11.89 0.084599
11.9 0.081558
11.91 0.0770141
11.92 0.0710557
11.93 0.063841
11.94 0.0555406
11.95 0.0465694
11.96 0.0372768
11.97 0.0280413
11.98 0.0192534
11.99 0.0112972
12 0.00453078
12.01 -0.000731542
12.02 -0.00415199
12.03 -0.00552482
12.04 -0.00487017
12.05 -0.00220978
12.06 0.00234043
12.07 0.00857397
12.08 0.016202
12.09 0.0248659
12.1 0.034153
12.11 0.0435918
12.12 0.0526683
12.13 0.0609351
12.14 0.0679825
12.15 0.0734578
12.16 0.0770821
12.17 0.0786654
12.18 0.0781158
12.19 0.0753904
12.2 0.070552
12.21 0.0639798
12.22 0.0559975
12.23 0.0469998
12.24 0.0374332
12.25 0.0277752
12.26 0.0185109
12.27 0.0101106
12.28 0.00311937
12.29 -0.00211168
12.3 -0.00534266
12.31 -0.00639004
12.32 -0.00517155
12.33 -0.0017093
12.34 0.00387209
12.35 0.0113524
12.36 0.0204416
12.37 0.0308084
12.38 0.0418939
12.39 0.0532431
12.4 0.0643996
12.41 0.074928
12.42 0.0844332
12.43 0.0925795
12.44 0.0991045
12.45 0.103733
12.46 0.106395
12.47 0.107197
12.48 0.106254
12.49 0.10376
12.5 0.0999778
12.51 0.0952197
12.52 0.0898331
12.53 0.0841804
12.54 0.0786589
12.55 0.0736168
12.56 0.0693376
12.57 0.0660481
12.58 0.0639083
12.59 0.0630052
12.6 0.0633509
12.61 0.0648844
12.62 0.0675082
12.63 0.0710271
12.64 0.0751392
12.65 0.079576
12.66 0.0840572
12.67 0.0883068
12.68 0.0920679
12.69 0.0951169
12.7 0.0972744
12.71 0.0983329
12.72 0.0982857
12.73 0.0971612
12.74 0.0950266
12.75 0.0920023
12.76 0.0882536
12.77 0.0839804
12.78 0.0794046
12.79 0.0747608
12.8 0.0703075
12.81 0.0662516
12.82 0.0627667
12.83 0.0599868
12.84 0.0580002
12.85 0.0568458
12.86 0.0565132
12.87 0.0569443
12.88 0.0580702
12.89 0.0597195
12.9 0.0617046
12.91 0.0638481
12.92 0.0659716
12.93 0.0679065
12.94 0.0695041
12.95 0.0706438
12.96 0.0712377
12.97 0.0711899
12.98 0.0705561
12.99 0.0693828
13 0.0677533
13.01 0.0657814
13.02 0.0636045
13.03 0.0613744
13.04 0.0592476
13.05 0.0573931
13.06 0.055965
13.07 0.0550566
13.08 0.054744
13.09 0.0550668
13.1 0.0560265
13.11 0.057586
13.12 0.0596717
13.13 0.0621778
13.14 0.0649836
13.15 0.0679019
13.16 0.0707684
13.17 0.0734225
13.18 0.0757141
13.19 0.0775112
13.2 0.0787067
13.21 0.0792245
13.22 0.0790018
13.23 0.0780093
13.24 0.0763328
13.25 0.0740425
13.26 0.0712368
13.27 0.0680354
13.28 0.0645734
13.29 0.0609928
13.3 0.0574353
13.31 0.0540537
13.32 0.0509701
13.33 0.0482731
13.34 0.0460307
13.35 0.0442833
13.36 0.0430435
13.37 0.0422974
13.38 0.0420072
13.39 0.0421194
13.4 0.042575
13.41 0.0432595
13.42 0.0440882
13.43 0.0449801
13.44 0.0458629
13.45 0.046677
13.46 0.0473782
13.47 0.0479392
13.48 0.0483422
13.49 0.0485965
13.5 0.0487295
13.51 0.0487705
13.52 0.0487528
13.53 0.0487088
13.54 0.048666
13.55 0.0486419
13.56 0.0486414
13.57 0.0486527
13.58 0.0486432
13.59 0.0485666
13.6 0.0483635
13.61 0.0479647
13.62 0.047296
13.63 0.0462836
13.64 0.0448601
13.65 0.042952
13.66 0.0405114
13.67 0.0375591
13.68 0.034117
13.69 0.0302377
13.7 0.0260043
13.71 0.021529
13.72 0.0169499
13.73 0.0124252
13.74 0.00815802
13.75 0.0043292
13.76 0.00110542
13.77 -0.00135774
13.78 -0.00292916
13.79 -0.00351045
13.8 -0.00304271
13.81 -0.00151174
13.82 0.00106918
13.83 0.00465312
13.84 0.00902675
13.85 0.0140112
13.86 0.0193946
13.87 0.0249412
13.88 0.0304025
13.89 0.0355287
13.9 0.0400808
13.91 0.043783
13.92 0.04646
13.93 0.0480125
13.94 0.048366
13.95 0.0475032
13.96 0.0454654
13.97 0.0423506
13.98 0.0383097
13.99 0.0335368
14 0.0282491
14.01 0.02277
14.02 0.0173694
14.03 0.0123123
14.04 0.00784503
14.05 0.00418315
14.06 0.00150025
14.07 -8.07751e-05
14.08 -0.000440897
14.09 0.000422639
14.1 0.00238288
14.11 0.00531438
14.12 0.00904211
14.13 0.0133507
14.14 0.0179957
14.15 0.0227164
14.16 0.0272497
14.17 0.0312866
14.18 0.0346184
14.19 0.037069
14.2 0.0385063
14.21 0.0388538
14.22 0.0380937
14.23 0.036268
14.24 0.0334761
14.25 0.0298516
14.26 0.0255948
14.27 0.0209919
14.28 0.0162957
14.29 0.0117639
14.3 0.00764544
14.31 0.00416779
14.32 0.00152537
14.33 -0.000130269
14.34 -0.000619516
14.35 5.1941e-05
14.36 0.00183152
14.37 0.00463937
14.38 0.00834526
14.39 0.012776
14.4 0.0177247
14.41 0.0229621
14.42 0.0282449
14.43 0.0332991
14.44 0.0379046
14.45 0.0418699
14.46 0.0450404
14.47 0.0473051
14.48 0.048601
14.49 0.048915
14.5 0.0482832
14.51 0.0467478
14.52 0.0444607
14.53 0.0416168
14.54 0.038396
14.55 0.0349886
14.56 0.0315838
14.57 0.0283605
14.58 0.0254777
14.59 0.0230666
14.6 0.0212834
14.61 0.0201339
14.62 0.0196286
14.63 0.0197409
14.64 0.0204094
14.65 0.0215433
14.66 0.0230291
14.67 0.0247383
14.68 0.0265338
14.69 0.028266
14.7 0.0298113
14.71 0.0310683
14.72 0.0319594
14.73 0.0324348
14.74 0.032474
14.75 0.0320855
14.76 0.0313055
14.77 0.0301739
14.78 0.028799
14.79 0.0272786
14.8 0.0257094
14.81 0.0241846
14.82 0.0227884
14.83 0.0215896
14.84 0.0206374
14.85 0.0199646
14.86 0.0195848
14.87 0.0194512
14.88 0.0195161
14.89 0.0197144
14.9 0.0199694
14.91 0.0201982
14.92 0.0203188
14.93 0.0202559
14.94 0.0199298
14.95 0.0193026
14.96 0.0183677
14.97 0.0171359
14.98 0.0156442
14.99 0.0139539
15 0.0121479
15.01 0.0103256
15.02 0.0085989
15.03 0.00710907
15.04 0.00595363
15.05 0.00522603
15.06 0.00499873
15.07 0.00531716
15.08 0.00619505
15.09 0.0076115
15.1 0.00951007
15.11 0.0118122
15.12 0.0143773
15.13 0.0170349
15.14 0.0196162
15.15 0.021945
15.16 0.0238474
15.17 0.0251614
15.18 0.0257466
15.19 0.025493
15.2 0.0242479
15.21 0.0220583
15.22 0.0189619
15.23 0.0150363
15.24 0.0104041
15.25 0.00522838
15.26 -0.000294674
15.27 -0.00594481
15.28 -0.0114776
15.29 -0.0166204
15.3 -0.0211622
15.31 -0.0249089
15.32 -0.0277021
15.33 -0.0294283
15.34 -0.0300259
15.35 -0.0294887
15.36 -0.0278673
15.37 -0.0252104
15.38 -0.0217425
15.39 -0.0176954
15.4 -0.0133078
15.41 -0.00883686
15.42 -0.00454464
15.43 -0.000684993
15.44 0.00251002
15.45 0.0048269
15.46 0.00603692
15.47 0.00612502
15.48 0.00506552
15.49 0.00289473
15.5 -0.000290404
15.51 -0.00433694
15.52 -0.00904342
15.53 -0.01417
15.54 -0.0194435
15.55 -0.0245497
15.56 -0.0292113
15.57 -0.0331763
15.58 -0.0362269
15.59 -0.0381913
15.6 -0.0389533
15.61 -0.0384584
15.62 -0.0367182
15.63 -0.0337134
15.64 -0.0297141
15.65 -0.0249286
15.66 -0.0196082
15.67 -0.0140351
15.68 -0.00850837
15.69 -0.00332899
15.7 0.00121581
15.71 0.00482331
15.72 0.00723807
15.73 0.008362
15.74 0.00810925
15.75 0.00646245
15.76 0.00347386
15.77 -0.000736751
15.78 -0.00598771
15.79 -0.0120441
15.8 -0.0186462
15.81 -0.0254247
15.82 -0.0320527
15.83 -0.0382182
15.84 -0.0436308
15.85 -0.0480361
15.86 -0.0512278
15.87 -0.0530582
15.88 -0.0534104
15.89 -0.0522085
15.9 -0.0496282
15.91 -0.0458073
15.92 -0.0409415
15.93 -0.0352749
15.94 -0.029087
15.95 -0.0226797
15.96 -0.0163622
15.97 -0.0104786
15.98 -0.00532145
15.99 -0.00110994
16 0.00197338
16.01 0.00380391
16.02 0.00432036
16.03 0.00352685
16.04 0.00149186
16.05 -0.00166311
16.06 -0.00580703
16.07 -0.0106118
16.08 -0.0158151
16.09 -0.0211399
16.1 -0.0263072
16.11 -0.0310507
16.12 -0.0351288
16.13 -0.0383364
16.14 -0.0404601
16.15 -0.0413877
16.16 -0.0411337
16.17 -0.0397221
16.18 -0.0372331
16.19 -0.0337987
16.2 -0.0295955
16.21 -0.0248353
16.22 -0.0197541
16.23 -0.0146166
16.24 -0.00969788
16.25 -0.00523137
16.26 -0.00142493
16.27 0.00154824
16.28 0.00355707
16.29 0.00451795
16.3 0.00439769
16.31 0.00318261
16.32 0.000921943
16.33 -0.00219641
16.34 -0.00601443
16.35 -0.0103457
16.36 -0.0149848
16.37 -0.0197172
16.38 -0.0243294
16.39 -0.0286187
16.4 -0.0323553
16.41 -0.0353977
16.42 -0.0376465
16.43 -0.0390298
16.44 -0.0395173
16.45 -0.0391206
16.46 -0.0378916
16.47 -0.0359186
16.48 -0.033314
16.49 -0.0302104
16.5 -0.0268211
16.51 -0.0233201
16.52 -0.0198812
16.53 -0.0166705
16.54 -0.0138395
16.55 -0.0115186
16.56 -0.00981243
16.57 -0.00883665
16.58 -0.00862339
16.59 -0.00914808
16.6 -0.0103817
16.61 -0.0122659
16.62 -0.0147165
16.63 -0.0176278
16.64 -0.0208778
16.65 -0.0243337
16.66 -0.0278509
16.67 -0.031276
16.68 -0.0344805
16.69 -0.0373483
16.7 -0.0397794
16.71 -0.0416937
16.72 -0.0430329
16.73 -0.0437623
16.74 -0.0438465
16.75 -0.0432931
16.76 -0.0421752
16.77 -0.040551
16.78 -0.0384951
16.79 -0.036095
16.8 -0.0334477
16.81 -0.0306557
16.82 -0.0278233
16.83 -0.0250658
16.84 -0.0224839
16.85 -0.0201624
16.86 -0.0181752
16.87 -0.0165824
16.88 -0.0154283
16.89 -0.014741
16.9 -0.0145314
16.91 -0.0148049
16.92 -0.015556
16.93 -0.016712
16.94 -0.0182202
16.95 -0.0200176
16.96 -0.022033
16.97 -0.0241896
16.98 -0.0264079
16.99 -0.0286082
17 -0.0307029
17.01 -0.0326167
17.02 -0.0342911
17.03 -0.0356745
17.04 -0.0367274
17.05 -0.037423
17.06 -0.0377482
17.07 -0.0377038
17.08 -0.0373012
17.09 -0.0365459
17.1 -0.0355091
17.11 -0.0342409
17.12 -0.0327987
17.13 -0.0312446
17.14 -0.0296432
17.15 -0.0280588
17.16 -0.0265533
17.17 -0.0251927
17.18 -0.0240323
17.19 -0.0231045
17.2 -0.0224382
17.21 -0.0220518
17.22 -0.0219522
17.23 -0.0221358
17.24 -0.0225886
17.25 -0.0232879
17.26 -0.0242192
17.27 -0.0253251
17.28 -0.0265636
17.29 -0.0278931
17.3 -0.0292719
17.31 -0.0306609
17.32 -0.0320244
17.33 -0.0333315
17.34 -0.0345534
17.35 -0.035666
17.36 -0.0366618
17.37 -0.0375336
17.38 -0.0382781
17.39 -0.0388956
17.4 -0.0393881
17.41 -0.0397585
17.42 -0.0400093
17.43 -0.0401328
17.44 -0.0401326
17.45 -0.0400065
17.46 -0.0397463
17.47 -0.0393414
17.48 -0.0387791
17.49 -0.0380461
17.5 -0.0371299
17.51 -0.0360164
17.52 -0.0346871
17.53 -0.033158
17.54 -0.0314376
17.55 -0.0295432
17.56 -0.0275019
17.57 -0.0253505
17.58 -0.0231359
17.59 -0.0209134
17.6 -0.018753
17.61 -0.0167304
17.62 -0.0149142
17.63 -0.0133744
17.64 -0.0121765
17.65 -0.0113784
17.66 -0.0110273
17.67 -0.0111562
17.68 -0.0117828
17.69 -0.012949
17.7 -0.0145828
17.71 -0.0166392
17.72 -0.0190544
17.73 -0.0217474
17.74 -0.0246232
17.75 -0.0275755
17.76 -0.0304915
17.77 -0.0332446
17.78 -0.0357054
17.79 -0.0377799
17.8 -0.0393785
17.81 -0.0404289
17.82 -0.0408798
17.83 -0.0407034
17.84 -0.0398971
17.85 -0.0384843
17.86 -0.0364744
17.87 -0.0339868
17.88 -0.0311265
17.89 -0.0280069
17.9 -0.0247525
17.91 -0.0214941
17.92 -0.0183631
17.93 -0.015486
17.94 -0.0129912
17.95 -0.0110094
17.96 -0.00959022
17.97 -0.00878635
17.98 -0.00862481
17.99 -0.00910597
18 -0.0102038
18.01 -0.011867
18.02 -0.0140217
18.03 -0.0165932
18.04 -0.0194454
18.05 -0.0224461
18.06 -0.0254707
18.07 -0.0283957
18.08 -0.0311038
18.09 -0.0334886
18.1 -0.0354584
18.11 -0.0369345
18.12 -0.0378206
18.13 -0.0381337
18.14 -0.0378712
18.15 -0.0370523
18.16 -0.0357166
18.17 -0.0339215
18.18 -0.0317395
18.19 -0.0292542
18.2 -0.0265517
18.21 -0.0237402
18.22 -0.020923
18.23 -0.0181898
18.24 -0.0156225
18.25 -0.0132925
18.26 -0.0112585
18.27 -0.00956559
18.28 -0.00824375
18.29 -0.00734253
18.3 -0.0068282
18.31 -0.00668251
18.32 -0.00687756
18.33 -0.00737529
18.34 -0.00812947
18.35 -0.00908769
18.36 -0.0101935
18.37 -0.0113891
18.38 -0.01261
18.39 -0.0137947
18.4 -0.0148902
18.41 -0.0158485
18.42 -0.0166271
18.43 -0.0171907
18.44 -0.017511
18.45 -0.0175681
18.46 -0.0173299
18.47 -0.0168087
18.48 -0.0160184
18.49 -0.0149753
18.5 -0.0137047
18.51 -0.0122398
18.52 -0.0106214
18.53 -0.00889725
18.54 -0.00712083
18.55 -0.00535697
18.56 -0.00367037
18.57 -0.002123
18.58 -0.000775497
18.59 0.000315066
18.6 0.00109745
18.61 0.00152851
18.62 0.00157538
18.63 0.00119367
18.64 0.000386388
18.65 -0.000819378
18.66 -0.00239569
18.67 -0.00429892
18.68 -0.00647054
18.69 -0.00883863
18.7 -0.0113201
18.71 -0.0138234
18.72 -0.0162361
18.73 -0.0184609
18.74 -0.0204049
18.75 -0.0219841
18.76 -0.0231268
18.77 -0.0237777
18.78 -0.0239006
18.79 -0.0234812
18.8 -0.0225075
18.81 -0.021014
18.82 -0.0190896
18.83 -0.0168158
18.84 -0.0142921
18.85 -0.0116311
18.86 -0.00895426
18.87 -0.00638656
18.88 -0.00405041
18.89 -0.00209653
18.9 -0.000607871
18.91 0.000344111
18.92 0.00070757
18.93 0.000457882
18.94 -0.000400603
18.95 -0.00183417
18.96 -0.00378074
18.97 -0.00616039
18.98 -0.00886135
18.99 -0.0117249
19 -0.0146103
19.01 -0.017374
19.02 -0.0198757
19.03 -0.0219858
19.04 -0.0235913
19.05 -0.0246016
19.06 -0.0249073
19.07 -0.0245009
19.08 -0.0234078
19.09 -0.0216665
19.1 -0.019346
19.11 -0.016542
19.12 -0.0133727
19.13 -0.009973
19.14 -0.00648846
19.15 -0.00308589
19.16 8.85505e-05
19.17 0.00290725
19.18 0.00526214
19.19 0.00706985
19.2 0.00827563
19.21 0.00885577
19.22 0.00881841
19.23 0.00817717
19.24 0.00701533
19.25 0.00545551
19.26 0.00361281
19.27 0.00161369
19.28 -0.000410904
19.29 -0.00233273
19.3 -0.00403306
19.31 -0.0054091
19.32 -0.00633783
19.33 -0.00679792
19.34 -0.0067707
19.35 -0.006265
19.36 -0.00531816
19.37 -0.00399347
19.38 -0.00237627
19.39 -0.000568759
19.4 0.00131446
19.41 0.00314164
19.42 0.00479677
19.43 0.0061788
19.44 0.00720392
19.45 0.00781037
19.46 0.00796213
19.47 0.00765108
19.48 0.0068975
19.49 0.00572526
19.5 0.00423849
19.51 0.00254193
19.52 0.000745991
19.53 -0.00103174
19.54 -0.00267332
19.55 -0.00406737
19.56 -0.00511561
19.57 -0.0057294
19.58 -0.00582321
19.59 -0.00540846
19.6 -0.00449309
19.61 -0.0031141
19.62 -0.00133569
19.63 0.000754258
19.64 0.00304904
19.65 0.00542916
19.66 0.00775922
19.67 0.00990256
19.68 0.0117488
19.69 0.0132027
19.7 0.0141919
19.71 0.0146712
19.72 0.0146259
19.73 0.0140728
19.74 0.0130584
19.75 0.0116362
19.76 0.00995397
19.77 0.00813645
19.78 0.00631925
19.79 0.00464135
19.8 0.00323719
19.81 0.00222895
19.82 0.00171931
19.83 0.00181213
19.84 0.00256036
19.85 0.00393777
19.86 0.00591272
19.87 0.00841901
19.88 0.0113588
19.89 0.0146071
19.9 0.0180179
19.91 0.0214317
19.92 0.0246566
19.93 0.027529
19.94 0.0299052
19.95 0.0316611
19.96 0.0327008
19.97 0.0329622
19.98 0.0324203
19.99 0.031089
20 0.0290033
20.01 0.0262402
20.02 0.0229761
20.03 0.0193629
20.04 0.0155693
20.05 0.0117722
20.06 0.0081485
20.07 0.0048658
20.08 0.00207446
20.09 -5.20049e-05
20.1 -0.00143797
20.11 -0.00204992
20.12 -0.00187503
20.13 -0.000938555
20.14 0.000698022
20.15 0.00294066
20.16 0.00566806
20.17 0.00874031
20.18 0.0119991
20.19 0.0152582
20.2 0.0183632
20.21 0.0211728
20.22 0.0235655
20.23 0.0254454
20.24 0.0267461
20.25 0.0274332
20.26 0.0274753
20.27 0.0269152
20.28 0.0258447
20.29 0.0243521
20.3 0.0225435
20.31 0.0205356
20.32 0.0184498
20.33 0.0164045
20.34 0.014509
20.35 0.0128869
20.36 0.0115939
20.37 0.0106754
20.38 0.0101521
20.39 0.0100203
20.4 0.0102527
20.41 0.0108015
20.42 0.0116026
20.43 0.0125838
20.44 0.0136561
20.45 0.0147291
20.46 0.0157293
20.47 0.0165947
20.48 0.0172792
20.49 0.0177553
20.5 0.0180155
20.51 0.0180728
20.52 0.0179503
20.53 0.0177134
20.54 0.0174295
20.55 0.0171702
20.56 0.0170091
20.57 0.0170163
20.58 0.0172535
20.59 0.0177691
20.6 0.0186006
20.61 0.0197752
20.62 0.0212534
20.63 0.022997
20.64 0.0249478
20.65 0.0270297
20.66 0.0291533
20.67 0.0312205
20.68 0.0331298
20.69 0.0347621
20.7 0.0360255
20.71 0.0368578
20.72 0.0372076
20.73 0.037047
20.74 0.0363732
20.75 0.03521
20.76 0.0336063
20.77 0.0316326
20.78 0.0293673
20.79 0.0269508
20.8 0.0244991
20.81 0.0221291
20.82 0.0199521
20.83 0.0180684
20.84 0.0165607
20.85 0.0154909
20.86 0.0149171
20.87 0.0148503
20.88 0.0152433
20.89 0.0160483
20.9 0.0171953
20.91 0.0185971
20.92 0.0201543
20.93 0.021762
20.94 0.0233158
20.95 0.0246987
20.96 0.0258333
20.97 0.0266609
20.98 0.0271449
20.99 0.0272739
21 0.0270631
21.01 0.0265532
21.02 0.0258074
21.03 0.0249065
21.04 0.0239558
21.05 0.0230679
21.06 0.0223449
21.07 0.0218799
21.08 0.0217514
21.09 0.0220168
21.1 0.0227081
21.11 0.023829
21.12 0.0253761
21.13 0.0272664
21.14 0.0293993
21.15 0.0316631
21.16 0.0339298
21.17 0.0360622
21.18 0.0379223
21.19 0.0393791
21.2 0.0403092
21.21 0.0405719
21.22 0.0401562
21.23 0.0390434
21.24 0.0372534
21.25 0.0348454
21.26 0.0319164
21.27 0.0285975
21.28 0.0250481
21.29 0.0214564
21.3 0.0180394
21.31 0.0149912
21.32 0.0124936
21.33 0.0107071
21.34 0.00976194
21.35 0.00974988
21.36 0.0107182
21.37 0.0126657
21.38 0.0156171
21.39 0.0193735
21.4 0.0237769
21.41 0.0286348
21.42 0.0337259
21.43 0.0388114
21.44 0.0436453
21.45 0.047988
21.46 0.0515832
21.47 0.0542007
21.48 0.0557406
21.49 0.0561103
21.5 0.0552718
21.51 0.0532451
21.52 0.0501077
21.53 0.0459918
21.54 0.0410783
21.55 0.0355647
21.56 0.0297637
21.57 0.0239576
21.58 0.0184201
21.59 0.0134135
21.6 0.00917588
21.61 0.00590942
21.62 0.00377071
21.63 0.00289009
21.64 0.00337706
21.65 0.00511026
21.66 0.00800068
21.67 0.011905
21.68 0.0166327
21.69 0.0219557
21.7 0.0276196
21.71 0.0333559
21.72 0.0388675
21.73 0.0438769
21.74 0.0481677
21.75 0.0515542
21.76 0.0538973
21.77 0.0551108
21.78 0.0551646
21.79 0.054085
21.8 0.0519479
21.81 0.0488231
21.82 0.0449831
21.83 0.0406374
21.84 0.0360138
21.85 0.0313464
21.86 0.0268635
21.87 0.0227763
21.88 0.0192684
21.89 0.0165248
21.9 0.0146605
21.91 0.0136839
21.92 0.0135912
21.93 0.0143312
21.94 0.0158091
21.95 0.0178933
21.96 0.0204231
21.97 0.0232182
21.98 0.0260795
21.99 0.0287989
22 0.0312044
22.01 0.0331489
22.02 0.0345164
22.03 0.0352284
22.04 0.0352475
22.05 0.0345786
22.06 0.033252
22.07 0.0313468
22.08 0.0290286
22.09 0.0264459
22.1 0.0237623
22.11 0.0211472
22.12 0.0187661
22.13 0.0167714
22.14 0.0152942
22.15 0.014484
22.16 0.0143831
22.17 0.0149957
22.18 0.0163021
22.19 0.0182446
22.2 0.0207298
22.21 0.0236346
22.22 0.026812
22.23 0.0300985
22.24 0.0333032
22.25 0.0362537
22.26 0.0387972
22.27 0.0408019
22.28 0.0421633
22.29 0.0428093
22.3 0.0427037
22.31 0.041848
22.32 0.0402462
22.33 0.0379927
22.34 0.035226
22.35 0.0320778
22.36 0.0286959
22.37 0.0252361
22.38 0.021854
22.39 0.0186974
22.4 0.0158989
22.41 0.0136208
22.42 0.0119062
22.43 0.0108008
22.44 0.0103184
22.45 0.010441
22.46 0.0111202
22.47 0.0122814
22.48 0.0138278
22.49 0.0156523
22.5 0.0176202
22.51 0.0195928
22.52 0.0214521
22.53 0.0230922
22.54 0.0244247
22.55 0.025383
22.56 0.0259254
22.57 0.0260364
22.58 0.0256973
22.59 0.0249763
22.6 0.0239434
22.61 0.0226785
22.62 0.0212735
22.63 0.0198268
22.64 0.0184376
22.65 0.0172
22.66 0.0162047
22.67 0.0155413
22.68 0.0152369
22.69 0.015315
22.7 0.0157758
22.71 0.0165973
22.72 0.0177361
22.73 0.0191302
22.74 0.0207029
22.75 0.0223665
22.76 0.0240147
22.77 0.0255522
22.78 0.0268921
22.79 0.0279587
22.8 0.0286905
22.81 0.0290443
22.82 0.028997
22.83 0.0285445
22.84 0.0276794
22.85 0.026482
22.86 0.0250146
22.87 0.0233538
22.88 0.0215864
22.89 0.0198051
22.9 0.0181037
22.91 0.0165721
22.92 0.0153073
22.93 0.0143864
22.94 0.0138462
22.95 0.0137172
22.96 0.0140093
22.97 0.0147115
22.98 0.0157923
22.99 0.0172012
23 0.018871
23.01 0.0207287
23.02 0.0226609
23.03 0.0245697
23.04 0.0263584
23.05 0.0279346
23.06 0.0292146
23.07 0.0301268
23.08 0.0306148
23.09 0.0306257
23.1 0.0301248
23.11 0.0291486
23.12 0.0277239
23.13 0.0258967
23.14 0.0237299
23.15 0.0213012
23.16 0.0186993
23.17 0.0160209
23.18 0.0133749
23.19 0.0108697
23.2 0.00859775
23.21 0.0066428
23.22 0.00507571
23.23 0.00395143
23.24 0.00330679
23.25 0.00315879
23.26 0.00351083
23.27 0.00436438
23.28 0.00563181
23.29 0.00724704
23.3 0.0091289
23.31 0.0111843
23.32 0.013312
23.33 0.0154064
23.34 0.0173622
23.35 0.0190605
23.36 0.0204032
23.37 0.021325
23.38 0.021768
23.39 0.0216942
23.4 0.0210882
23.41 0.0199576
23.42 0.0183342
23.43 0.0162722
23.44 0.0138226
23.45 0.0111237
23.46 0.00828816
23.47 0.0054379
23.48 0.00269933
23.49 0.000198006
23.5 -0.00194697
23.51 -0.00362833
23.52 -0.00473155
23.53 -0.00517218
23.54 -0.00494508
23.55 -0.00404232
23.56 -0.00248599
23.57 -0.000328238
23.58 0.0023501
23.59 0.00544211
23.6 0.00881878
23.61 0.0123323
23.62 0.0158011
23.63 0.0190622
23.64 0.0219592
23.65 0.024348
23.66 0.0261031
23.67 0.0271245
23.68 0.0273426
23.69 0.0267028
23.7 0.0251715
23.71 0.0228578
23.72 0.0198474
23.73 0.0162597
23.74 0.0122431
23.75 0.00796842
23.76 0.00362211
23.77 -0.000602429
23.78 -0.00448232
23.79 -0.00782901
23.8 -0.0104982
23.81 -0.0123645
23.82 -0.0133384
23.83 -0.013371
23.84 -0.0124575
23.85 -0.0106376
23.86 -0.0079895
23.87 -0.00459724
23.88 -0.000696938
23.89 0.00351991
23.9 0.00784514
23.91 0.0120638
23.92 0.0159645
23.93 0.0193499
23.94 0.0220464
23.95 0.0238691
23.96 0.0247098
23.97 0.0245651
23.98 0.0234409
23.99 0.0213925
24 0.0185226
24.01 0.0149768
24.02 0.0109367
24.03 0.0066111
24.04 0.00224094
24.05 -0.00191809
24.06 -0.00564355
24.07 -0.00873374
24.08 -0.0110179
24.09 -0.0123653
24.1 -0.0126922
24.11 -0.0119671
24.12 -0.010183
24.13 -0.00740234
24.14 -0.00382874
24.15 0.000355271
24.16 0.00493263
24.17 0.00966218
24.18 0.0142905
24.19 0.0185643
24.2 0.0222434
24.21 0.0250423
24.22 0.0268091
24.23 0.0274426
24.24 0.0268765
24.25 0.0251026
24.26 0.0221716
24.27 0.0181918
24.28 0.0133236
24.29 0.00776565
24.3 0.00175915
24.31 -0.00437678
24.32 -0.0103667
24.33 -0.0159411
24.34 -0.0208494
24.35 -0.0248723
24.36 -0.0278321
24.37 -0.0296016
24.38 -0.0300392
24.39 -0.0291614
24.4 -0.0270806
24.41 -0.0239154
24.42 -0.0198345
24.43 -0.0150475
24.44 -0.00979465
24.45 -0.00433467
24.46 0.00106794
24.47 0.00610417
24.48 0.0105534
24.49 0.0142196
24.5 0.01695
24.51 0.0186419
24.52 0.0192467
24.53 0.0187714
24.54 0.0172769
24.55 0.0148442
24.56 0.0116393
24.57 0.00790531
24.58 0.00385684
24.59 -0.000282487
24.6 -0.00429211
24.61 -0.00796604
24.62 -0.0111234
24.63 -0.0136175
24.64 -0.015277
24.65 -0.0160936
24.66 -0.0160791
24.67 -0.0152803
24.68 -0.0137873
24.69 -0.0117272
24.7 -0.00925606
24.71 -0.00655019
24.72 -0.00379877
24.73 -0.00121185
24.74 0.00104072
24.75 0.00281423
24.76 0.00399539
24.77 0.00450829
24.78 0.00431807
24.79 0.0034324
24.8 0.00190043
24.81 -0.000218134
24.82 -0.00276754
24.83 -0.00558059
24.84 -0.00849251
24.85 -0.0113336
24.86 -0.0139388
24.87 -0.0161571
24.88 -0.0178598
24.89 -0.018942
24.9 -0.0192844
24.91 -0.0189242
24.92 -0.0178839
24.93 -0.0162235
24.94 -0.0140367
24.95 -0.0114455
24.96 -0.00859268
24.97 -0.00563435
24.98 -0.00274101
24.99 -8.62524e-05
25 0.00219582
25.01 0.00399032
25.02 0.00521094
25.03 0.00580405
25.04 0.005751
25.05 0.00506835
25.06 0.00380619
25.07 0.00201007
25.08 -0.00016296
25.09 -0.0025837
25.1 -0.00511774
25.11 -0.00762987
25.12 -0.00999178
25.13 -0.0120892
25.14 -0.0138277
25.15 -0.0151227
25.16 -0.0159176
25.17 -0.0162342
25.18 -0.0160961
25.19 -0.0155522
25.2 -0.0146734
25.21 -0.0135465
25.22 -0.0122683
25.23 -0.0109389
25.24 -0.00966463
25.25 -0.00853613
25.26 -0.00761857
25.27 -0.00695744
25.28 -0.00657477
25.29 -0.00646822
25.3 -0.00661192
25.31 -0.00695884
25.32 -0.00744563
25.33 -0.00799083
25.34 -0.00850162
25.35 -0.00889743
25.36 -0.00910645
25.37 -0.00907166
25.38 -0.00875591
25.39 -0.00814577
25.4 -0.00725385
25.41 -0.00610949
25.42 -0.00479265
25.43 -0.00340384
25.44 -0.00205059
25.45 -0.000850074
25.46 7.82009e-05
25.47 0.000620262
25.48 0.000675524
25.49 0.00016339
25.5 -0.00102733
25.51 -0.00285424
25.52 -0.00529238
25.53 -0.00827956
25.54 -0.0117177
25.55 -0.0154765
25.56 -0.0193986
25.57 -0.0233077
25.58 -0.0270001
25.59 -0.0302607
25.6 -0.0329272
25.61 -0.0348472
25.62 -0.0358999
25.63 -0.0360034
25.64 -0.0351205
25.65 -0.0332627
25.66 -0.0304909
25.67 -0.0268621
25.68 -0.022603
25.69 -0.0179228
25.7 -0.0130452
25.71 -0.00820904
25.72 -0.00365657
25.73 0.000379175
25.74 0.00368617
25.75 0.00605808
25.76 0.00730136
25.77 0.00740566
25.78 0.00635178
25.79 0.00417799
25.8 0.00097864
25.81 -0.00310011
25.82 -0.00786729
25.83 -0.0130964
25.84 -0.018533
25.85 -0.023879
25.86 -0.0288715
25.87 -0.0332719
25.88 -0.0368723
25.89 -0.0395063
25.9 -0.0410574
25.91 -0.0414647
25.92 -0.0407156
25.93 -0.0387957
25.94 -0.0359262
25.95 -0.0322779
25.96 -0.028059
25.97 -0.0235042
25.98 -0.0188614
25.99 -0.0143791
26 -0.0102925
26.01 -0.00685016
26.02 -0.00423901
26.03 -0.00254598
26.04 -0.0018335
26.05 -0.00210816
26.06 -0.00332116
26.07 -0.00537181
26.08 -0.00811378
26.09 -0.0113639
26.1 -0.0149193
26.11 -0.0185133
26.12 -0.0219224
26.13 -0.0249405
26.14 -0.0273883
26.15 -0.029124
26.16 -0.0300507
26.17 -0.0301222
26.18 -0.0293186
26.19 -0.0276903
26.2 -0.025407
26.21 -0.0226266
26.22 -0.0195376
26.23 -0.0163473
26.24 -0.0132699
26.25 -0.0105134
26.26 -0.00826747
26.27 -0.00674949
26.28 -0.00604967
26.29 -0.00621354
26.3 -0.00724876
26.31 -0.00910947
26.32 -0.0116986
26.33 -0.0148729
26.34 -0.0184514
26.35 -0.0222243
26.36 -0.0259404
26.37 -0.0293617
26.38 -0.0322762
26.39 -0.0344992
26.4 -0.0358837
26.41 -0.0363298
26.42 -0.035791
26.43 -0.0342783
26.44 -0.0318154
26.45 -0.0285649
26.46 -0.0247416
26.47 -0.0205632
26.48 -0.0162723
26.49 -0.0121226
26.5 -0.00836508
26.51 -0.00523334
26.52 -0.00293275
26.53 -0.00172285
26.54 -0.00161831
26.55 -0.0026524
26.56 -0.00479488
26.57 -0.00795273
26.58 -0.0119743
26.59 -0.0166569
26.6 -0.0217569
26.61 -0.0269964
26.62 -0.0320534
26.63 -0.0366422
26.64 -0.0405048
26.65 -0.0434191
26.66 -0.0452114
26.67 -0.0457665
26.68 -0.0450348
26.69 -0.0430356
26.7 -0.0397739
26.71 -0.0355065
26.72 -0.0304713
26.73 -0.0249337
26.74 -0.0191885
26.75 -0.0135446
26.76 -0.00830819
26.77 -0.00376638
26.78 -0.000202414
26.79 0.00211482
26.8 0.00312375
26.81 0.00276525
26.82 0.00105322
26.83 -0.00192572
26.84 -0.00601647
26.85 -0.0110033
26.86 -0.016621
26.87 -0.0225687
26.88 -0.0284779
26.89 -0.0340192
26.9 -0.0388909
26.91 -0.0428258
26.92 -0.0456066
26.93 -0.0470764
26.94 -0.0471481
26.95 -0.0457945
26.96 -0.0429927
26.97 -0.0390118
26.98 -0.0340647
26.99 -0.028416
27 -0.0223673
27.01 -0.0162418
27.02 -0.0103669
27.03 -0.00505732
27.04 -0.00065314
27.05 0.00258746
27.06 0.00453634
27.07 0.00509497
27.08 0.00423871
27.09 0.0020178
27.1 -0.00144546
27.11 -0.00596337
27.12 -0.0112929
27.13 -0.0171675
27.14 -0.0232019
27.15 -0.0290714
27.16 -0.0344647
27.17 -0.0390977
27.18 -0.0427282
27.19 -0.0451687
27.2 -0.046295
27.21 -0.0460065
27.22 -0.0442978
27.23 -0.0413557
27.24 -0.0373481
27.25 -0.0324961
27.26 -0.0270622
27.27 -0.0213358
27.28 -0.0156175
27.29 -0.0102031
27.3 -0.00542919
27.31 -0.00152202
27.32 0.00135068
27.33 0.0030676
27.34 0.00357173
27.35 0.00287231
27.36 0.00104317
27.37 -0.00178235
27.38 -0.00543038
27.39 -0.00968184
27.4 -0.0142213
27.41 -0.0187834
27.42 -0.0231088
27.43 -0.0269582
27.44 -0.0301251
27.45 -0.0324472
27.46 -0.0338143
27.47 -0.0341153
27.48 -0.0333893
27.49 -0.0317516
27.5 -0.0293329
27.51 -0.0263077
27.52 -0.0228839
27.53 -0.0192898
27.54 -0.0157617
27.55 -0.0125314
27.56 -0.00987159
27.57 -0.00792216
27.58 -0.00680992
27.59 -0.00661119
27.6 -0.00734792
27.61 -0.00898688
27.62 -0.0114419
27.63 -0.0145789
27.64 -0.0182368
27.65 -0.0221862
27.66 -0.0261783
27.67 -0.0299871
27.68 -0.0333974
27.69 -0.0362165
27.7 -0.0382851
27.71 -0.0394858
27.72 -0.0397496
27.73 -0.0389834
27.74 -0.0373007
27.75 -0.0348091
27.76 -0.0316477
27.77 -0.0279905
27.78 -0.0240359
27.79 -0.019996
27.8 -0.0160842
27.81 -0.0125181
27.82 -0.00951676
27.83 -0.00719692
27.84 -0.00565857
27.85 -0.00495561
27.86 -0.00509373
27.87 -0.00603097
27.88 -0.00768095
27.89 -0.00991858
27.9 -0.0126045
27.91 -0.0155241
27.92 -0.0184777
27.93 -0.0212809
27.94 -0.0237636
27.95 -0.0257799
27.96 -0.0272165
27.97 -0.0279985
27.98 -0.0280859
27.99 -0.0274482
28 -0.0262064
28.01 -0.024462
28.02 -0.0223468
28.03 -0.0200147
28.04 -0.0176318
28.05 -0.015366
28.06 -0.0133765
28.07 -0.0118309
28.08 -0.0108477
28.09 -0.0104764
28.1 -0.0107438
28.11 -0.0116339
28.12 -0.0130881
28.13 -0.0150087
28.14 -0.017264
28.15 -0.0196964
28.16 -0.0221151
28.17 -0.0243249
28.18 -0.0261529
28.19 -0.0274446
28.2 -0.0280736
28.21 -0.0279497
28.22 -0.0270251
28.23 -0.0252985
28.24 -0.0227931
28.25 -0.0196023
28.26 -0.0159139
28.27 -0.0119047
28.28 -0.00777577
28.29 -0.00374111
28.3 -1.65984e-05
28.31 0.00319219
28.32 0.0057014
28.33 0.00728714
28.34 0.00788272
28.35 0.00745484
28.36 0.00600595
28.37 0.00359176
28.38 0.000318974
28.39 -0.00365979
28.4 -0.00815352
28.41 -0.0129433
28.42 -0.0177688
28.43 -0.0223695
28.44 -0.0265154
28.45 -0.0299999
28.46 -0.0326504
28.47 -0.0343377
28.48 -0.0349828
28.49 -0.0345608
28.5 -0.0330466
28.51 -0.0305674
28.52 -0.0273046
28.53 -0.0234431
28.54 -0.0191977
28.55 -0.0148016
28.56 -0.0104936
28.57 -0.00650538
28.58 -0.00305247
28.59 -0.000391125
28.6 0.00140008
28.61 0.0022412
28.62 0.002106
28.63 0.00102313
28.64 -0.000925754
28.65 -0.00361067
28.66 -0.00686062
28.67 -0.0104787
28.68 -0.0142138
28.69 -0.0178188
28.7 -0.0210721
28.71 -0.0237728
28.72 -0.0257518
28.73 -0.0268814
28.74 -0.0270824
28.75 -0.0263283
28.76 -0.0245774
28.77 -0.0219939
28.78 -0.0187298
28.79 -0.0149666
28.8 -0.0109161
28.81 -0.00680864
28.82 -0.00288117
28.83 0.000636076
28.84 0.00350897
28.85 0.0055107
28.86 0.00655609
28.87 0.00656721
28.88 0.00552118
28.89 0.00345179
28.9 0.0004483
28.91 -0.00334873
28.92 -0.00775422
28.93 -0.012557
28.94 -0.0174686
28.95 -0.0222224
28.96 -0.026566
28.97 -0.0302649
28.98 -0.0331137
28.99 -0.0349471
29 -0.0356478
29.01 -0.0351382
29.02 -0.0333359
29.03 -0.0304063
29.04 -0.026471
29.05 -0.0217003
29.06 -0.0163046
29.07 -0.010525
29.08 -0.00462097
29.09 0.00114162
29.1 0.00646921
29.11 0.0110987
29.12 0.0148461
29.13 0.0175504
29.14 0.0190991
29.15 0.0194326
29.16 0.0185464
29.17 0.0164898
29.18 0.0133635
29.19 0.00924539
29.2 0.00442114
29.21 -0.000889659
29.22 -0.00645471
29.23 -0.0120373
29.24 -0.0174072
29.25 -0.0223503
29.26 -0.0266783
29.27 -0.0302031
29.28 -0.03278
29.29 -0.0343909
29.3 -0.0350157
29.31 -0.0346766
29.32 -0.0334356
29.33 -0.031389
29.34 -0.0286615
29.35 -0.0253988
29.36 -0.021744
29.37 -0.0178986
29.38 -0.0140287
29.39 -0.0102821
29.4 -0.00678926
29.41 -0.00365849
29.42 -0.000973
29.43 0.00121087
29.44 0.00285262
29.45 0.00392285
29.46 0.00448565
29.47 0.00458451
29.48 0.00427724
29.49 0.00363131
29.5 0.00271904
29.51 0.00161313
29.52 0.000382597
29.53 -0.00091109
29.54 -0.00220945
29.55 -0.00347204
29.56 -0.00467196
29.57 -0.00579338
29.58 -0.00683018
29.59 -0.00778389
29.6 -0.00866138
29.61 -0.0094718
29.62 -0.0102205
29.63 -0.0109194
29.64 -0.0115697
29.65 -0.0121662
29.66 -0.0126973
29.67 -0.0131444
29.68 -0.0134835
29.69 -0.0136861
29.7 -0.0137129
29.71 -0.0135294
29.72 -0.0131182
29.73 -0.0124601
29.74 -0.0115447
29.75 -0.0103728
29.76 -0.00895728
29.77 -0.00732432
29.78 -0.00551303
29.79 -0.00356913
29.8 -0.00157041
29.81 0.000411203
29.82 0.00230113
29.83 0.00402458
29.84 0.00551026
29.85 0.00669421
29.86 0.00752324
29.87 0.00794576
29.88 0.00792314
29.89 0.00748064
29.9 0.00663602
29.91 0.00542501
29.92 0.00389976
29.93 0.0021265
29.94 0.000182304
29.95 -0.00184864
29.96 -0.00387318
29.97 -0.00579747
29.98 -0.00754401
29.99 -0.00904583
30 -0.0102499
30.01 -0.0111197
30.02 -0.011637
30.03 -0.0118019
30.04 -0.0116293
30.05 -0.0111401
30.06 -0.0104142
30.07 -0.00951545
30.08 -0.00851445
30.09 -0.0074843
30.1 -0.00649642
30.11 -0.00561643
30.12 -0.00490042
30.13 -0.00440438
30.14 -0.00415537
30.15 -0.00415228
30.16 -0.00438578
30.17 -0.0048303
30.18 -0.00544577
30.19 -0.00618015
30.2 -0.0069727
30.21 -0.0077577
30.22 -0.00845569
30.23 -0.00900595
30.24 -0.00935457
30.25 -0.00945883
30.26 -0.00929001
30.27 -0.00883517
30.28 -0.00809804
30.29 -0.00709897
30.3 -0.00586733
30.31 -0.0044566
30.32 -0.00294164
30.33 -0.00139109
30.34 0.000123997
30.35 0.0015342
30.36 0.00277574
30.37 0.00379417
30.38 0.00454754
30.39 0.00498553
30.4 0.00511679
30.41 0.00495729
30.42 0.00453436
30.43 0.0038903
30.44 0.00307984
30.45 0.00216699
30.46 0.00122124
30.47 0.000315881
30.48 -0.000469019
30.49 -0.00107835
30.5 -0.00146518
30.51 -0.00159726
30.52 -0.00145917
30.53 -0.00105357
30.54 -0.000401437
30.55 0.000458778
30.56 0.00147813
30.57 0.00257618
30.58 0.00367011
30.59 0.00467799
30.6 0.00551838
30.61 0.00611503
30.62 0.00640129
30.63 0.00632419
30.64 0.00584517
30.65 0.00491457
30.66 0.00357836
30.67 0.00186869
30.68 -0.000161306
30.69 -0.00243951
30.7 -0.00487768
30.71 -0.00737521
30.72 -0.00982362
30.73 -0.0120987
30.74 -0.0140773
30.75 -0.0156682
30.76 -0.0167852
30.77 -0.0173596
30.78 -0.0173433
30.79 -0.0167116
30.8 -0.0154645
30.81 -0.013627
30.82 -0.0112085
30.83 -0.00833173
30.84 -0.00509698
30.85 -0.00161464
30.86 0.0019945
30.87 0.00560414
30.88 0.00908745
30.89 0.0123221
30.9 0.0151811
30.91 0.0175399
30.92 0.0193457
30.93 0.0205422
30.94 0.0210961
30.95 0.0209978
30.96 0.0202615
30.97 0.018924
30.98 0.017043
30.99 0.0146686
31 0.0119244
31.01 0.0089267
31.02 0.00578671
31.03 0.00261812
31.04 -0.000467154
31.05 -0.00336273
31.06 -0.00597132
31.07 -0.00820119
31.08 -0.00994752
31.09 -0.0111916
31.1 -0.0119022
31.11 -0.012067
31.12 -0.0116925
31.13 -0.0108029
31.14 -0.00943965
31.15 -0.00765909
31.16 -0.00551645
31.17 -0.00310754
31.18 -0.000535563
31.19 0.00210567
31.2 0.00472096
31.21 0.00721669
31.22 0.00950367
31.23 0.0114998
31.24 0.0131329
31.25 0.0142983
31.26 0.0149879
31.27 0.0151748
31.28 0.0148488
31.29 0.0140169
31.3 0.0127034
31.31 0.0109496
31.32 0.00881267
31.33 0.00635518
31.34 0.00366815
31.35 0.000863337
31.36 -0.0019587
31.37 -0.00469504
31.38 -0.00724405
31.39 -0.00950906
31.4 -0.011402
31.41 -0.0128469
31.42 -0.01374
31.43 -0.014069
31.44 -0.0138251
31.45 -0.0130127
31.46 -0.0116584
31.47 -0.00981041
31.48 -0.00753753
31.49 -0.00492648
31.5 -0.00207637
31.51 0.000892452
31.52 0.0038436
31.53 0.00665585
31.54 0.00921246
31.55 0.0114061
31.56 0.0131438
31.57 0.014351
31.58 0.014975
31.59 0.0149499
31.6 0.0142964
31.61 0.0130659
31.62 0.0113158
31.63 0.00912712
31.64 0.00660084
31.65 0.00385399
31.66 0.00101433
31.67 -0.00178389
31.68 -0.00438245
31.69 -0.00666438
31.7 -0.00852158
31.71 -0.00986534
31.72 -0.0106305
31.73 -0.0107787
31.74 -0.0103001
31.75 -0.00921417
31.76 -0.00754607
31.77 -0.00538205
31.78 -0.00284967
31.79 -6.67432e-05
31.8 0.00283812
31.81 0.00573173
31.82 0.0084829
31.83 0.0109689
31.84 0.0130814
31.85 0.0146867
31.86 0.0157556
31.87 0.0162623
31.88 0.0162065
31.89 0.015617
31.9 0.01455
31.91 0.0130862
31.92 0.0113264
31.93 0.00938416
31.94 0.00739588
31.95 0.00549606
31.96 0.00380162
31.97 0.00241581
31.98 0.00142243
31.99 0.00088104
32 0.000823465
32.01 0.0012517
32.02 0.00216562
32.03 0.00347629
32.04 0.00508364
32.05 0.00687771
32.06 0.00873377
32.07 0.010519
32.08 0.0120998
32.09 0.0133491
32.1 0.0141456
32.11 0.014356
32.12 0.0139579
32.13 0.0129245
32.14 0.0112631
32.15 0.00901602
32.16 0.00625964
32.17 0.00310125
32.18 -0.000325317
32.19 -0.00386237
32.2 -0.00731947
32.21 -0.0105204
32.22 -0.0132983
32.23 -0.0155004
32.24 -0.016996
32.25 -0.0176833
32.26 -0.0174952
32.27 -0.0164033
32.28 -0.0143414
32.29 -0.0114591
32.3 -0.00785934
32.31 -0.00367985
32.32 0.000912571
32.33 0.00572938
32.34 0.0105686
32.35 0.0152241
32.36 0.0194715
32.37 0.0230952
32.38 0.0259607
32.39 0.0279437
32.4 0.0289576
32.41 0.0289583
32.42 0.0279458
32.43 0.0259643
32.44 0.0231004
32.45 0.0194317
32.46 0.015183
32.47 0.0105534
32.48 0.0057453
32.49 0.000967003
32.5 -0.0035767
32.51 -0.00769337
32.52 -0.0112112
32.53 -0.0139657
32.54 -0.0157989
32.55 -0.0167021
32.56 -0.016653
32.57 -0.01567
32.58 -0.0138105
32.59 -0.0111665
32.6 -0.00786044
32.61 -0.00403829
32.62 0.000148502
32.63 0.00449775
32.64 0.00882789
32.65 0.0129764
32.66 0.0167962
32.67 0.0201614
32.68 0.0229717
32.69 0.0251556
32.7 0.0266663
32.71 0.0274426
32.72 0.0275675
32.73 0.0270913
32.74 0.0260856
32.75 0.0246385
32.76 0.0228485
32.77 0.0208195
32.78 0.0186552
32.79 0.0164562
32.8 0.0143199
32.81 0.012318
32.82 0.0105043
32.83 0.00891453
32.84 0.0075663
32.85 0.00646037
32.86 0.0055824
32.87 0.00490579
32.88 0.00440585
32.89 0.00402472
32.9 0.00371936
32.91 0.00345107
32.92 0.00318735
32.93 0.00290442
32.94 0.00258896
32.95 0.00223896
32.96 0.00186361
32.97 0.00148589
32.98 0.00113741
32.99 0.000853889
33 0.000673621
33.01 0.000634228
33.02 0.000769366
33.03 0.00110562
33.04 0.00165975
33.05 0.00245187
33.06 0.00345937
33.07 0.00465109
33.08 0.0059874
33.09 0.00741655
33.1 0.0088768
33.11 0.0102994
33.12 0.0116119
33.13 0.0127379
33.14 0.0135876
33.15 0.0141185
33.16 0.0142856
33.17 0.014059
33.18 0.0134265
33.19 0.0123944
33.2 0.0109882
33.21 0.00925183
33.22 0.00723514
33.23 0.00502852
33.24 0.00273001
33.25 0.000433637
33.26 -0.00176484
33.27 -0.00377238
33.28 -0.005503
33.29 -0.00688178
33.3 -0.00784782
33.31 -0.00831373
33.32 -0.00829986
33.33 -0.00780749
33.34 -0.0068579
33.35 -0.00549116
33.36 -0.00376402
33.37 -0.00174703
33.38 0.000478906
33.39 0.00282755
33.4 0.00519868
33.41 0.00749957
33.42 0.00965005
33.43 0.0115799
33.44 0.0132315
33.45 0.0145618
33.46 0.0155435
33.47 0.0161653
33.48 0.0164045
33.49 0.0163065
33.5 0.0159094
33.51 0.0152552
33.52 0.014392
33.53 0.0133705
33.54 0.0122418
33.55 0.0110537
33.56 0.00984954
33.57 0.00866875
33.58 0.00753696
33.59 0.00646995
33.6 0.00547454
33.61 0.00454953
33.62 0.003687
33.63 0.00287421
33.64 0.00209567
33.65 0.00133566
33.66 0.000578337
33.67 -0.000185891
33.68 -0.000960209
33.69 -0.00174079
33.7 -0.00251625
33.71 -0.00326781
33.72 -0.00396994
33.73 -0.00459065
33.74 -0.00508318
33.75 -0.00541923
33.76 -0.00556523
33.77 -0.00549228
33.78 -0.00517869
33.79 -0.00461223
33.8 -0.00379196
33.81 -0.00272949
33.82 -0.00144089
33.83 2.89926e-05
33.84 0.00161812
33.85 0.00326457
33.86 0.00489936
33.87 0.00644962
33.88 0.00784209
33.89 0.00900689
33.9 0.0098813
33.91 0.0103797
33.92 0.0104919
33.93 0.010203
33.94 0.00951474
33.95 0.00844867
33.96 0.00704551
33.97 0.0053642
33.98 0.00347966
33.99 0.00147941
34 -0.000527843
34.01 -0.00243357
34.02 -0.00413677
34.03 -0.00554259
34.04 -0.00656692
34.05 -0.00714077
34.06 -0.0072139
34.07 -0.00675767
34.08 -0.00572956
34.09 -0.00418175
34.1 -0.0021747
34.11 0.000220788
34.12 0.00291472
34.13 0.00580166
34.14 0.00876519
34.15 0.0116829
34.16 0.0144267
34.17 0.0168499
34.18 0.0188621
34.19 0.0203747
34.2 0.0213191
34.21 0.0216496
34.22 0.0213459
34.23 0.0204133
34.24 0.0188828
34.25 0.0167833
34.26 0.0142144
34.27 0.0112953
34.28 0.00813789
34.29 0.00486236
34.3 0.00159179
34.31 -0.00155284
34.32 -0.00445768
34.33 -0.00701952
34.34 -0.00910637
34.35 -0.0106882
34.36 -0.0117231
34.37 -0.0121914
34.38 -0.012096
34.39 -0.0114607
34.4 -0.010329
34.41 -0.00876107
34.42 -0.00681946
34.43 -0.00459614
34.44 -0.00220039
34.45 0.000276036
34.46 0.00274404
34.47 0.00512049
34.48 0.00733108
34.49 0.00931262
34.5 0.0110146
34.51 0.0123727
34.52 0.0133854
34.53 0.0140503
34.54 0.0143731
34.55 0.0143698
34.56 0.0140648
34.57 0.0134895
34.58 0.0126794
34.59 0.0116686
34.6 0.010493
34.61 0.00920313
34.62 0.00783362
34.63 0.00641612
34.64 0.0049788
34.65 0.00354645
34.66 0.0021408
34.67 0.000781165
34.68 -0.000509565
34.69 -0.00171518
34.7 -0.00282089
34.71 -0.0038093
34.72 -0.00466207
34.73 -0.00535975
34.74 -0.00588208
34.75 -0.00620854
34.76 -0.00631678
34.77 -0.00616983
34.78 -0.00577195
34.79 -0.00511385
34.8 -0.00419251
34.81 -0.00301243
34.82 -0.00158668
34.83 6.24385e-05
34.84 0.00190309
34.85 0.003899
34.86 0.00599224
34.87 0.00811759
34.88 0.0102111
34.89 0.012206
34.9 0.0140348
34.91 0.0156325
34.92 0.016939
34.93 0.0179023
34.94 0.0184431
34.95 0.0185645
34.96 0.0182568
34.97 0.0175235
34.98 0.0163841
34.99 0.0148732
35 0.0130393
35.01 0.0109435
35.02 0.00865277
35.03 0.00625182
35.04 0.00383343
35.05 0.0014789
35.06 -0.000734497
35.07 -0.00273673
35.08 -0.00446795
35.09 -0.00588082
35.1 -0.0069424
35.11 -0.0076079
35.12 -0.00789746
35.13 -0.00783599
35.14 -0.0074545
35.15 -0.00679576
35.16 -0.00591169
35.17 -0.00486048
35.18 -0.00370331
35.19 -0.00250134
35.2 -0.00131812
35.21 -0.000205268
35.22 0.000797865
35.23 0.00166324
35.24 0.00237523
35.25 0.00293089
35.26 0.00333962
35.27 0.00362198
35.28 0.00380449
35.29 0.0039311
35.3 0.0040467
35.31 0.00419305
35.32 0.00440905
35.33 0.00472779
35.34 0.00517388
35.35 0.00576132
35.36 0.00649238
35.37 0.00736525
35.38 0.00833973
35.39 0.00937683
35.4 0.0104275
35.41 0.0114351
35.42 0.0123383
35.43 0.0130746
35.44 0.013584
35.45 0.0137987
35.46 0.0136674
35.47 0.0131772
35.48 0.0123161
35.49 0.0110899
35.5 0.00952261
35.51 0.00765649
35.52 0.00555096
35.53 0.00328052
35.54 0.000933382
35.55 -0.00138034
35.56 -0.00356007
35.57 -0.00550769
35.58 -0.0071314
35.59 -0.00835032
35.6 -0.00909873
35.61 -0.00932974
35.62 -0.00900348
35.63 -0.00809909
35.64 -0.00668232
35.65 -0.00480611
35.66 -0.00254581
35.67 3.68822e-06
35.68 0.00273156
35.69 0.00551565
35.7 0.00822753
35.71 0.0107163
35.72 0.0128536
35.73 0.0145357
35.74 0.0156697
35.75 0.0161843
35.76 0.016033
35.77 0.015197
35.78 0.013686
35.79 0.0115323
35.8 0.00877071
35.81 0.00555066
35.82 0.00199007
35.83 -0.00177702
35.84 -0.00560573
35.85 -0.00934613
35.86 -0.0128492
35.87 -0.0159727
35.88 -0.0185552
35.89 -0.0204775
35.9 -0.0216786
35.91 -0.022101
35.92 -0.0217156
35.93 -0.020523
35.94 -0.0185526
35.95 -0.0158621
35.96 -0.0125343
35.97 -0.00863751
35.98 -0.00435306
35.99 0.000178548
36 0.0048124
36.01 0.00940232
36.02 0.0138061
36.03 0.0178902
36.04 0.0215345
36.05 0.0246135
36.06 0.0270217
36.07 0.0287365
36.08 0.0297259
36.09 0.0299814
36.1 0.0295173
36.11 0.0283695
36.12 0.0265928
36.13 0.0242587
36.14 0.0214236
36.15 0.0182188
36.16 0.0147555
36.17 0.011138
36.18 0.00746963
36.19 0.00384979
36.2 0.000371564
36.21 -0.00288046
36.22 -0.00582455
36.23 -0.00837198
36.24 -0.0104979
36.25 -0.0121665
36.26 -0.0133542
36.27 -0.0140495
36.28 -0.0142521
36.29 -0.0139723
36.3 -0.0132299
36.31 -0.0120303
36.32 -0.0104255
36.33 -0.00847585
36.34 -0.00623189
36.35 -0.00374928
36.36 -0.00108759
36.37 0.00169049
36.38 0.00452014
36.39 0.00733506
36.4 0.010056
36.41 0.012621
36.42 0.0149684
36.43 0.0170411
36.44 0.0187875
36.45 0.0201632
36.46 0.0211324
36.47 0.0216692
36.48 0.0217393
36.49 0.0213379
36.5 0.020501
36.51 0.0192545
36.52 0.0176372
36.53 0.0156997
36.54 0.0135031
36.55 0.0111179
36.56 0.00862129
36.57 0.00609973
36.58 0.00364619
36.59 0.00134238
36.6 -0.000735293
36.61 -0.00251838
36.62 -0.0039491
36.63 -0.00498266
36.64 -0.0055892
36.65 -0.00574288
36.66 -0.00543263
36.67 -0.00471219
36.68 -0.00362185
36.69 -0.00221632
36.7 -0.000562472
36.71 0.00126338
36.72 0.00317868
36.73 0.00509814
36.74 0.00692639
36.75 0.00857948
36.76 0.00999049
36.77 0.011102
36.78 0.0118708
36.79 0.0122701
36.8 0.01229
36.81 0.0119383
36.82 0.0112363
36.83 0.0102087
36.84 0.00894082
36.85 0.00750013
36.86 0.00596097
36.87 0.00440111
36.88 0.00289794
36.89 0.00152478
36.9 0.000347477
36.91 -0.000563522
36.92 -0.00116544
36.93 -0.0014463
36.94 -0.00139959
36.95 -0.00103541
36.96 -0.000379734
36.97 0.000527038
36.98 0.00163224
36.99 0.0028737
37 0.00418262
37.01 0.00547613
37.02 0.00668471
37.03 0.00774444
37.04 0.00860006
37.05 0.00920771
37.06 0.00953712
37.07 0.00957309
37.08 0.00930623
37.09 0.00875061
37.1 0.00795764
37.11 0.00697428
37.12 0.00585757
37.13 0.00467166
37.14 0.00348448
37.15 0.00236419
37.16 0.00137568
37.17 0.000595292
37.18 6.3514e-05
37.19 -0.000190422
37.2 -0.00014819
37.21 0.000192981
37.22 0.000820094
37.23 0.00170497
37.24 0.00280557
37.25 0.00406997
37.26 0.00543273
37.27 0.00681244
37.28 0.00813719
37.29 0.00933683
37.3 0.0103463
37.31 0.0111089
37.32 0.0115789
37.33 0.0117238
37.34 0.0115054
37.35 0.0109328
37.36 0.0100352
37.37 0.00884521
37.38 0.00740849
37.39 0.00578187
37.4 0.00403073
37.41 0.00222591
37.42 0.000441073
37.43 -0.00123722
37.44 -0.0027453
37.45 -0.00402447
37.46 -0.00502626
37.47 -0.00571428
37.48 -0.00606549
37.49 -0.00607085
37.5 -0.00573531
37.51 -0.00506421
37.52 -0.00409169
37.53 -0.00287668
37.54 -0.00146975
37.55 7.32813e-05
37.56 0.00169397
37.57 0.00333371
37.58 0.00493617
37.59 0.00644941
37.6 0.00781313
37.61 0.00899712
37.62 0.00997536
37.63 0.0107294
37.64 0.0112497
37.65 0.0115348
37.66 0.0115911
37.67 0.0114308
37.68 0.0110661
37.69 0.0105141
37.7 0.00981052
37.71 0.00897902
37.72 0.00804245
37.73 0.00702224
37.74 0.00593789
37.75 0.00480674
37.76 0.00364409
37.77 0.0024632
37.78 0.00127857
37.79 0.000102792
37.8 -0.00105131
37.81 -0.00216952
37.82 -0.00323556
37.83 -0.00423069
37.84 -0.00513344
37.85 -0.00591782
37.86 -0.00654512
37.87 -0.00699739
37.88 -0.00724698
37.89 -0.00726771
37.9 -0.00703651
37.91 -0.00653504
37.92 -0.00575143
37.93 -0.00468178
37.94 -0.00331759
37.95 -0.00168131
37.96 0.000185963
37.97 0.00224375
37.98 0.00444112
37.99 0.00671781
38 0.00900589
38.01 0.0112319
38.02 0.0133195
38.03 0.0151654
38.04 0.0167108
38.05 0.0178911
38.06 0.0186514
38.07 0.0189494
38.08 0.0187584
38.09 0.0180684
38.1 0.0168877
38.11 0.0152278
38.12 0.0131332
38.13 0.0106965
38.14 0.00799865
38.15 0.00513265
38.16 0.00220012
38.17 -0.000692318
38.18 -0.00343716
38.19 -0.00593011
38.2 -0.00804078
38.21 -0.00969815
38.22 -0.0108419
38.23 -0.0114236
38.24 -0.0114157
38.25 -0.0108122
38.26 -0.00962943
38.27 -0.00790554
38.28 -0.00569061
38.29 -0.00305145
38.3 -0.000118506
38.31 0.00300095
38.32 0.00619242
38.33 0.0093384
38.34 0.0123227
38.35 0.0150347
38.36 0.0173733
38.37 0.0192179
38.38 0.0205042
38.39 0.0211999
38.4 0.0212777
38.41 0.0207318
38.42 0.0195779
38.43 0.0178524
38.44 0.015611
38.45 0.0129241
38.46 0.00985941
38.47 0.00655541
38.48 0.0031196
38.49 -0.00033721
38.5 -0.00370444
38.51 -0.00687521
38.52 -0.00974959
38.53 -0.0122375
38.54 -0.0142373
38.55 -0.0156781
38.56 -0.0165401
38.57 -0.0167978
38.58 -0.0164436
38.59 -0.0154871
38.6 -0.0139555
38.61 -0.0118917
38.62 -0.00935337
38.63 -0.00638377
38.64 -0.00310348
38.65 0.000392156
38.66 0.00400604
38.67 0.00763814
38.68 0.0111881
38.69 0.0145579
38.7 0.0176541
38.71 0.0203773
38.72 0.0226284
38.73 0.0243691
38.74 0.0255512
38.75 0.0261416
38.76 0.0261233
38.77 0.0254964
38.78 0.024278
38.79 0.0225024
38.8 0.0201896
38.81 0.0174367
38.82 0.0143384
38.83 0.0109874
38.84 0.00748509
38.85 0.00393778
38.86 0.000454056
38.87 -0.00285876
38.88 -0.00589266
38.89 -0.00852028
38.9 -0.0106849
38.91 -0.0123216
38.92 -0.013383
38.93 -0.0138408
38.94 -0.0136875
38.95 -0.0129364
38.96 -0.0116213
38.97 -0.00977256
38.98 -0.00747935
38.99 -0.00485205
39 -0.00199178
39.01 0.000992983
39.02 0.00399055
39.03 0.00689038
39.04 0.00958736
39.05 0.011986
39.06 0.0139628
39.07 0.0154855
39.08 0.0165137
39.09 0.017028
39.1 0.0170312
39.11 0.0165475
39.12 0.0156221
39.13 0.0143181
39.14 0.0127066
39.15 0.010886
39.16 0.00897137
39.17 0.00706306
39.18 0.00525833
39.19 0.00364686
39.2 0.00230659
39.21 0.00130012
39.22 0.000671869
39.23 0.000477573
39.24 0.000692559
39.25 0.00128699
39.26 0.00221815
39.27 0.00342606
39.28 0.00483656
39.29 0.00636524
39.3 0.00792178
39.31 0.0094111
39.32 0.010729
39.33 0.0118039
39.34 0.0125722
39.35 0.0129869
39.36 0.0130205
39.37 0.0126662
39.38 0.0119385
39.39 0.0108725
39.4 0.00950947
39.41 0.0079382
39.42 0.00625332
39.43 0.00454774
39.44 0.00291681
39.45 0.00145338
39.46 0.00024289
39.47 -0.000641204
39.48 -0.00113841
39.49 -0.00117505
39.5 -0.000774205
39.51 5.24231e-05
39.52 0.00127046
39.53 0.00282426
39.54 0.00463941
39.55 0.00662618
39.56 0.00868376
39.57 0.0106983
39.58 0.0125482
39.59 0.0141346
39.6 0.0153672
39.61 0.0161711
39.62 0.0164913
39.63 0.0162948
39.64 0.0155732
39.65 0.0143432
39.66 0.0126113
39.67 0.0104869
39.68 0.00806205
39.69 0.00544002
39.7 0.00273435
39.71 6.35526e-05
39.72 -0.00245439
39.73 -0.00470753
39.74 -0.00658106
39.75 -0.00796818
39.76 -0.00883348
39.77 -0.00914096
39.78 -0.00887964
39.79 -0.00806386
39.8 -0.00673245
39.81 -0.00494672
39.82 -0.00278744
39.83 -0.000339091
39.84 0.00226627
39.85 0.00490895
39.86 0.00747662
39.87 0.00986306
39.88 0.0119729
39.89 0.0137257
39.9 0.0150596
39.91 0.0159257
39.92 0.016275
39.93 0.0161526
39.94 0.015588
39.95 0.0146297
39.96 0.0133419
39.97 0.011801
39.98 0.0100916
39.99 0.00830153
40 0.00652286
40.01 0.00484576
40.02 0.00333918
40.03 0.00205952
40.04 0.00104761
40.05 0.000327411
40.06 -9.44852e-05
40.07 -0.000228342
40.08 -9.99113e-05
40.09 0.000268107
40.1 0.000799957
40.11 0.00143792
40.12 0.00212179
40.13 0.00279246
40.14 0.00339541
40.15 0.00388387
40.16 0.00422131
40.17 0.00437613
40.18 0.00433491
40.19 0.00411359
40.2 0.00373132
40.21 0.0032188
40.22 0.00261627
40.23 0.00197088
40.24 0.00133372
40.25 0.00075664
40.26 0.000301281
40.27 7.65702e-06
40.28 -9.24962e-05
40.29 2.35711e-05
40.3 0.000366436
40.31 0.000933812
40.32 0.00171059
40.33 0.00266956
40.34 0.00377513
40.35 0.00497947
40.36 0.00621911
40.37 0.0074378
40.38 0.00857967
40.39 0.00959212
40.4 0.0104285
40.41 0.0110506
40.42 0.01143
40.43 0.0115334
40.44 0.0113655
40.45 0.0109446
40.46 0.0102917
40.47 0.00943746
40.48 0.00842035
40.49 0.00728424
40.5 0.00607605
40.51 0.00484337
40.52 0.00363739
40.53 0.00249945
40.54 0.00146286
40.55 0.000553147
40.56 -0.000212784
40.57 -0.000826768
40.58 -0.00128903
40.59 -0.00160729
40.6 -0.00179014
40.61 -0.0018587
40.62 -0.00184002
40.63 -0.00175507
40.64 -0.00162283
40.65 -0.00145854
40.66 -0.00127237
40.67 -0.00106852
40.68 -0.000844724
40.69 -0.000588686
40.7 -0.000286497
40.71 8.10072e-05
40.72 0.000535485
40.73 0.00109882
40.74 0.00179092
40.75 0.00262742
40.76 0.0036176
40.77 0.00476716
40.78 0.00606957
40.79 0.00749332
40.8 0.00900568
40.81 0.0105637
40.82 0.0121155
40.83 0.0136023
40.84 0.0149605
40.85 0.0161254
40.86 0.0170113
40.87 0.0175684
40.88 0.0177563
40.89 0.0175416
40.9 0.0169059
40.91 0.0158483
40.92 0.0143863
40.93 0.0125563
40.94 0.0104087
40.95 0.00800899
40.96 0.00546884
40.97 0.0028861
40.98 0.000364268
40.99 -0.00199215
41 -0.00408235
41.01 -0.00581409
41.02 -0.00710825
41.03 -0.00787255
41.04 -0.00807266
41.05 -0.00771577
41.06 -0.00681437
41.07 -0.00540572
41.08 -0.00355076
41.09 -0.00133174
41.1 0.00115107
41.11 0.00378371
41.12 0.00643406
41.13 0.00896433
41.14 0.0112532
41.15 0.0131891
41.16 0.0146759
41.17 0.0156369
41.18 0.0160194
41.19 0.0157966
41.2 0.0149464
41.21 0.0134971
41.22 0.0115433
41.23 0.00917046
41.24 0.0064837
41.25 0.00360305
41.26 0.000657848
41.27 -0.00221922
41.28 -0.0048983
41.29 -0.00722442
41.3 -0.0091052
41.31 -0.0104644
41.32 -0.0112453
41.33 -0.0114188
41.34 -0.0109839
41.35 -0.00996827
41.36 -0.00842671
41.37 -0.00643007
41.38 -0.00407574
41.39 -0.00151269
41.4 0.00113171
41.41 0.00372739
41.42 0.0061478
41.43 0.00827583
41.44 0.0100093
41.45 0.0112659
41.46 0.0119499
41.47 0.0120472
41.48 0.0115758
41.49 0.0105644
41.5 0.0090677
41.51 0.00716325
41.52 0.00494777
41.53 0.00253236
41.54 3.7598e-05
41.55 -0.00239775
41.56 -0.00464955
41.57 -0.00660869
41.58 -0.00818098
41.59 -0.00929143
41.6 -0.00988762
41.61 -0.00994191
41.62 -0.00945249
41.63 -0.00842044
41.64 -0.00690455
41.65 -0.00500305
41.66 -0.00280765
41.67 -0.000422736
41.68 0.00203969
41.69 0.00446524
41.7 0.00674248
41.71 0.008768
41.72 0.0104143
41.73 0.0116324
41.74 0.0123754
41.75 0.0126166
41.76 0.0123521
41.77 0.0116012
41.78 0.0104043
41.79 0.00882082
41.8 0.00691925
41.81 0.0047923
41.82 0.00255506
41.83 0.000306293
41.84 -0.00185771
41.85 -0.0038474
41.86 -0.00558383
41.87 -0.00700193
41.88 -0.00805307
41.89 -0.0086771
41.9 -0.00888438
41.91 -0.00869553
41.92 -0.00813993
41.93 -0.00726261
41.94 -0.00612165
41.95 -0.00478516
41.96 -0.00332778
41.97 -0.00182784
41.98 -0.000372056
41.99 0.00096588
42 0.00212276
42.01 0.00304597
42.02 0.00369546
42.03 0.0040451
42.04 0.00408328
42.05 0.00381294
42.06 0.00323606
42.07 0.0023928
42.08 0.00133662
42.09 0.000118207
42.1 -0.00120612
42.11 -0.00257701
42.12 -0.00393465
42.13 -0.00522124
42.14 -0.00638297
42.15 -0.00735325
42.16 -0.00810721
42.17 -0.00861693
42.18 -0.00886442
42.19 -0.00884186
42.2 -0.00855135
42.21 -0.00800435
42.22 -0.00722077
42.23 -0.00622064
42.24 -0.00503985
42.25 -0.00372789
42.26 -0.00232596
42.27 -0.000876423
42.28 0.000578574
42.29 0.00199834
42.3 0.00334476
42.31 0.00458319
42.32 0.00566998
42.33 0.00658732
42.34 0.00731809
42.35 0.00784872
42.36 0.00817119
42.37 0.00828299
42.38 0.00818693
42.39 0.00789098
42.4 0.00740356
42.41 0.00673702
42.42 0.00592626
42.43 0.00499685
42.44 0.00397727
42.45 0.00289824
42.46 0.00179204
42.47 0.000691812
42.48 -0.000369308
42.49 -0.00135232
42.5 -0.00222633
42.51 -0.00296652
42.52 -0.00354976
42.53 -0.00395765
42.54 -0.00417728
42.55 -0.00420191
42.56 -0.00403145
42.57 -0.00367093
42.58 -0.00312327
42.59 -0.00242629
42.6 -0.00160806
42.61 -0.000701901
42.62 0.000254768
42.63 0.00122173
42.64 0.00215748
42.65 0.00302083
42.66 0.00376527
42.67 0.00435209
42.68 0.00475793
42.69 0.00496125
42.7 0.00494869
42.71 0.00471583
42.72 0.00426758
42.73 0.00361817
42.74 0.00279072
42.75 0.00180676
42.76 0.000720611
42.77 -0.000422899
42.78 -0.00157699
42.79 -0.00269425
42.8 -0.00372882
42.81 -0.00463859
42.82 -0.00538721
42.83 -0.00593873
42.84 -0.00626679
42.85 -0.00637605
42.86 -0.00627021
42.87 -0.00596369
42.88 -0.00548095
42.89 -0.00485542
42.9 -0.00412791
42.91 -0.00334461
42.92 -0.00255807
42.93 -0.00182321
42.94 -0.00118697
42.95 -0.000691054
42.96 -0.000369725
42.97 -0.00024786
42.98 -0.000339463
42.99 -0.000646695
43 -0.00116284
43.01 -0.00187276
43.02 -0.00272533
43.03 -0.00367569
43.04 -0.00467191
43.05 -0.00565751
43.06 -0.00657423
43.07 -0.00736504
43.08 -0.0079771
43.09 -0.00834942
43.1 -0.00844798
43.11 -0.00825983
43.12 -0.00777726
43.13 -0.00700696
43.14 -0.00597012
43.15 -0.00470172
43.16 -0.00324926
43.17 -0.00167054
43.18 -3.29342e-05
43.19 0.00158153
43.2 0.00310084
43.21 0.00445584
43.22 0.00558365
43.23 0.00643074
43.24 0.00695577
43.25 0.00713175
43.26 0.0069326
43.27 0.00636338
43.28 0.00546912
43.29 0.00429152
43.3 0.0028859
43.31 0.00131874
43.32 -0.000335477
43.33 -0.00199775
43.34 -0.00358839
43.35 -0.00501302
43.36 -0.00620771
43.37 -0.0071186
43.38 -0.00770407
43.39 -0.00793894
43.4 -0.00781582
43.41 -0.0073457
43.42 -0.00655755
43.43 -0.00549153
43.44 -0.00420761
43.45 -0.0027981
43.46 -0.00134459
43.47 6.8144e-05
43.48 0.0013564
43.49 0.00244179
43.5 0.00325527
43.51 0.00374085
43.52 0.00383276
43.53 0.0035241
43.54 0.00282859
43.55 0.00176969
43.56 0.000390301
43.57 -0.00124899
43.58 -0.00307261
43.59 -0.00499338
43.6 -0.00691549
43.61 -0.00872458
43.62 -0.010327
43.63 -0.0116359
43.64 -0.0125764
43.65 -0.0130895
43.66 -0.0131354
43.67 -0.0126956
43.68 -0.0117742
43.69 -0.0103777
43.7 -0.00856688
43.71 -0.0064347
43.72 -0.00407031
43.73 -0.00157498
43.74 0.000942548
43.75 0.00337109
43.76 0.00560216
43.77 0.00753513
43.78 0.00904077
43.79 0.0100786
43.8 0.0106052
43.81 0.0105988
43.82 0.0100623
43.83 0.00902315
43.84 0.00753239
43.85 0.00566223
43.86 0.00349658
43.87 0.00114844
43.88 -0.00125177
43.89 -0.00358797
43.9 -0.00574753
43.91 -0.00762668
43.92 -0.00913544
43.93 -0.010202
43.94 -0.0107764
43.95 -0.0107941
43.96 -0.0102875
43.97 -0.00929851
43.98 -0.00788326
43.99 -0.00611943
44 -0.00410286
44.01 -0.00194303
44.02 0.000242046
44.03 0.00232704
44.04 0.00417004
44.05 0.00567286
44.06 0.00674389
44.07 0.0073111
44.08 0.00732558
44.09 0.00676409
44.1 0.00563034
44.11 0.00395517
44.12 0.00177172
44.13 -0.000815993
44.14 -0.00368639
44.15 -0.00672043
44.16 -0.00978985
44.17 -0.0127629
44.18 -0.0155099
44.19 -0.0179095
44.2 -0.0198513
44.21 -0.021191
44.22 -0.0219094
44.23 -0.0219698
44.24 -0.0213623
44.25 -0.0201048
44.26 -0.0182413
44.27 -0.0158403
44.28 -0.0129916
44.29 -0.00979303
44.3 -0.00637895
44.31 -0.00289426
44.32 0.000532061
44.33 0.00377561
44.34 0.00672147
44.35 0.00926867
44.36 0.0113339
44.37 0.0128542
44.38 0.0137393
44.39 0.0140157
44.4 0.0137015
44.41 0.0128294
44.42 0.011451
44.43 0.00963427
44.44 0.00745974
44.45 0.00501672
44.46 0.00239716
44.47 -0.000296965
44.48 -0.00296486
44.49 -0.00552392
44.5 -0.00790168
44.51 -0.0100379
44.52 -0.0118859
44.53 -0.0134132
44.54 -0.0146013
44.55 -0.0154222
44.56 -0.0158988
44.57 -0.0160596
44.58 -0.0159311
44.59 -0.0155449
44.6 -0.014936
44.61 -0.0141399
44.62 -0.0131916
44.63 -0.0121225
44.64 -0.0109581
44.65 -0.00973227
44.66 -0.00846548
44.67 -0.00717472
44.68 -0.00587429
44.69 -0.00457682
44.7 -0.00329435
44.71 -0.00203958
44.72 -0.000829958
44.73 0.00031542
44.74 0.00137761
44.75 0.00233253
44.76 0.00315324
44.77 0.00381071
44.78 0.0042751
44.79 0.00451728
44.8 0.00451067
44.81 0.00420716
44.82 0.00361518
44.83 0.00273109
44.84 0.0015608
44.85 0.000121884
44.86 -0.00155584
44.87 -0.00343033
44.88 -0.005448
44.89 -0.00754516
44.9 -0.00964062
44.91 -0.011652
44.92 -0.0134994
44.93 -0.0151052
44.94 -0.0163973
44.95 -0.017313
44.96 -0.0178022
44.97 -0.0178307
44.98 -0.0173465
44.99 -0.0163836
45 -0.01498
45.01 -0.0131843
45.02 -0.0110639
45.03 -0.00870218
45.04 -0.00619544
45.05 -0.00364879
45.06 -0.00117548
45.07 0.00109483
45.08 0.00306749
45.09 0.00465332
45.1 0.00577929
45.11 0.00639225
45.12 0.00646177
45.13 0.00598192
45.14 0.00497197
45.15 0.0034509
45.16 0.00150866
45.17 -0.000746978
45.18 -0.00320983
45.19 -0.0057636
45.2 -0.00828731
45.21 -0.010661
45.22 -0.0127716
45.23 -0.0145159
45.24 -0.0157664
45.25 -0.0165004
45.26 -0.0166867
45.27 -0.0163205
45.28 -0.0154242
45.29 -0.0140463
45.3 -0.0122589
45.31 -0.0101543
45.32 -0.00783696
45.33 -0.00544047
45.34 -0.00309759
45.35 -0.000928024
45.36 0.000957719
45.37 0.00246385
45.38 0.00351406
45.39 0.00405535
45.4 0.00406068
45.41 0.00348779
45.42 0.00241022
45.43 0.000892892
45.44 -0.000982821
45.45 -0.00311753
45.46 -0.00539896
45.47 -0.00770766
45.48 -0.0099231
45.49 -0.0119207
45.5 -0.0135744
45.51 -0.0148157
45.52 -0.0155834
45.53 -0.015841
45.54 -0.015579
45.55 -0.0148151
45.56 -0.0135931
45.57 -0.0119808
45.58 -0.0100531
45.59 -0.00793934
45.6 -0.00576278
45.61 -0.00364184
45.62 -0.00169151
45.63 -1.74427e-05
45.64 0.00128953
45.65 0.00215805
45.66 0.00253319
45.67 0.0023582
45.68 0.00168382
45.69 0.000546834
45.7 -0.000991785
45.71 -0.00285015
45.72 -0.00492975
45.73 -0.00712062
45.74 -0.00930701
45.75 -0.0113611
45.76 -0.0131632
45.77 -0.0146252
45.78 -0.0156716
45.79 -0.0162489
45.8 -0.0163279
45.81 -0.0159054
45.82 -0.0150038
45.83 -0.0136704
45.84 -0.0119491
45.85 -0.00996944
45.86 -0.00783587
45.87 -0.00565877
45.88 -0.00354981
45.89 -0.00161616
45.9 4.48096e-05
45.91 0.00135043
45.92 0.00221952
45.93 0.00259818
45.94 0.00249793
45.95 0.00192965
45.96 0.000927162
45.97 -0.000455053
45.98 -0.00214512
45.99 -0.00405788
46 -0.00609962
46.01 -0.00816818
46.02 -0.0101581
46.03 -0.0119828
46.04 -0.0135685
46.05 -0.0148572
46.06 -0.0158096
46.07 -0.0164061
46.08 -0.0166473
46.09 -0.0165474
46.1 -0.0161348
46.11 -0.0154894
46.12 -0.0146768
46.13 -0.0137685
46.14 -0.0128372
46.15 -0.011952
46.16 -0.0111747
46.17 -0.0105556
46.18 -0.0101439
46.19 -0.00995347
46.2 -0.0099757
46.21 -0.0101913
46.22 -0.0105652
46.23 -0.0110489
46.24 -0.0115836
46.25 -0.0121042
46.26 -0.0125422
46.27 -0.0128149
46.28 -0.0128741
46.29 -0.0126754
46.3 -0.0121888
46.31 -0.0114018
46.32 -0.0103199
46.33 -0.00896765
46.34 -0.00738725
46.35 -0.0056326
46.36 -0.00378499
46.37 -0.00193442
46.38 -0.000166607
46.39 0.00143378
46.4 0.00278792
46.41 0.00382744
46.42 0.00449844
46.43 0.00476487
46.44 0.0045758
46.45 0.00397278
46.46 0.00299258
46.47 0.0016881
46.48 0.00012999
46.49 -0.00159689
46.5 -0.00339775
46.51 -0.00517285
46.52 -0.00681603
46.53 -0.00821627
46.54 -0.00930304
46.55 -0.0100134
46.56 -0.0103044
46.57 -0.010156
46.58 -0.00957194
46.59 -0.00858041
46.6 -0.00723241
46.61 -0.00558619
46.62 -0.00375426
46.63 -0.00184689
46.64 2.68157e-05
46.65 0.00175763
46.66 0.00324197
46.67 0.00438746
46.68 0.00511788
46.69 0.00537024
46.7 0.00507846
46.71 0.0042807
46.72 0.00300288
46.73 0.00129613
46.74 -0.000765634
46.75 -0.00308916
46.76 -0.00556643
46.77 -0.00807998
46.78 -0.0104975
46.79 -0.012688
46.8 -0.0145484
46.81 -0.0159867
46.82 -0.016931
46.83 -0.0173329
46.84 -0.0171702
46.85 -0.0164475
46.86 -0.0151969
46.87 -0.0134391
46.88 -0.0113072
46.89 -0.00890415
46.9 -0.00634482
46.91 -0.00375105
46.92 -0.00124573
46.93 0.00105309
46.94 0.00303781
46.95 0.00459794
46.96 0.00564639
46.97 0.00616333
46.98 0.00613074
46.99 0.00555654
47 0.00447377
47.01 0.00293866
47.02 0.00102764
47.03 -0.00116661
47.04 -0.00354486
47.05 -0.0059745
47.06 -0.00834121
47.07 -0.0105388
47.08 -0.0124711
47.09 -0.014056
47.1 -0.0152288
47.11 -0.0159446
47.12 -0.0161687
47.13 -0.0158771
47.14 -0.015128
47.15 -0.0139633
47.16 -0.0124406
47.17 -0.0106305
47.18 -0.00861243
47.19 -0.00647083
47.2 -0.0042914
47.21 -0.00216497
47.22 -0.0001748
47.23 0.00161513
47.24 0.00315064
47.25 0.00439044
47.26 0.00530684
47.27 0.00588564
47.28 0.00612552
47.29 0.00603468
47.3 0.00561147
47.31 0.00491458
47.32 0.00397959
47.33 0.00284559
47.34 0.00155323
47.35 0.000143165
47.36 -0.00134529
47.37 -0.00287509
47.38 -0.00441084
47.39 -0.00591772
47.4 -0.00736803
47.41 -0.00873667
47.42 -0.0100005
47.43 -0.0111378
47.44 -0.0121278
47.45 -0.0129503
47.46 -0.0135858
47.47 -0.0139962
47.48 -0.0141784
47.49 -0.0141194
47.5 -0.0138076
47.51 -0.0132361
47.52 -0.0124042
47.53 -0.0113184
47.54 -0.00999359
47.55 -0.0084489
47.56 -0.0067179
47.57 -0.00486058
47.58 -0.00293258
47.59 -0.000997314
47.6 0.000875943
47.61 0.00261454
47.62 0.00414533
47.63 0.00539795
47.64 0.00628028
47.65 0.00674993
47.66 0.00677752
47.67 0.00634177
47.68 0.0054401
47.69 0.00408993
47.7 0.00232919
47.71 0.000215801
47.72 -0.00217653
47.73 -0.00475614
47.74 -0.00739498
47.75 -0.00997892
47.76 -0.0123918
47.77 -0.014521
47.78 -0.0162623
47.79 -0.0175255
47.8 -0.0182393
47.81 -0.0183205
47.82 -0.0177563
47.83 -0.016582
47.84 -0.0148373
47.85 -0.0125893
47.86 -0.00992947
47.87 -0.00697086
47.88 -0.00384268
47.89 -0.000684846
47.9 0.00233417
47.91 0.00507353
47.92 0.00740405
47.93 0.00921367
47.94 0.0104131
47.95 0.0109404
47.96 0.0107642
47.97 0.0098857
47.98 0.00831549
47.99 0.00612139
48 0.00344106
48.01 0.000398862
48.02 -0.00286317
48.03 -0.00619183
48.04 -0.00942993
48.05 -0.0124236
48.06 -0.0150295
48.07 -0.0170731
48.08 -0.0184787
48.09 -0.0191875
48.1 -0.0191646
48.11 -0.0184089
48.12 -0.016953
48.13 -0.014861
48.14 -0.0122263
48.15 -0.00915921
48.16 -0.00579824
48.17 -0.00232145
48.18 0.00111898
48.19 0.00437502
48.2 0.00730947
48.21 0.00980213
48.22 0.0117549
48.23 0.0130957
48.24 0.0137392
48.25 0.0136954
48.26 0.013008
48.27 0.0117268
48.28 0.00992517
48.29 0.00769551
48.3 0.00514391
48.31 0.00238452
48.32 -0.000466193
48.33 -0.00328372
48.34 -0.00596129
48.35 -0.00841312
48.36 -0.0105715
48.37 -0.0123888
48.38 -0.0138385
48.39 -0.014915
48.4 -0.0156316
48.41 -0.0160051
48.42 -0.0160858
48.43 -0.0159429
48.44 -0.0156339
48.45 -0.0152152
48.46 -0.0147385
48.47 -0.0142463
48.48 -0.0137702
48.49 -0.0133282
48.5 -0.0129267
48.51 -0.0125494
48.52 -0.0121712
48.53 -0.0117573
48.54 -0.0112669
48.55 -0.0106571
48.56 -0.00988654
48.57 -0.00891987
48.58 -0.00772403
48.59 -0.0062797
48.6 -0.00460813
48.61 -0.00273392
48.62 -0.00069922
48.63 0.00143729
48.64 0.00360257
48.65 0.00571244
48.66 0.00767561
48.67 0.00937479
48.68 0.0107227
48.69 0.0116457
48.7 0.0120787
48.71 0.0119758
48.72 0.0113132
48.73 0.0100921
48.74 0.00833955
48.75 0.00610179
48.76 0.00344103
48.77 0.000496079
48.78 -0.00261558
48.79 -0.00576656
48.8 -0.0088257
48.81 -0.0116645
48.82 -0.0141637
48.83 -0.0162193
48.84 -0.0177154
48.85 -0.0185999
48.86 -0.0188711
48.87 -0.0185368
48.88 -0.017635
48.89 -0.0162313
48.9 -0.0144163
48.91 -0.0123005
48.92 -0.0100084
48.93 -0.00768067
48.94 -0.00546315
48.95 -0.00347852
48.96 -0.00183421
48.97 -0.000616537
48.98 0.000113905
48.99 0.000325534
49 1.74661e-05
49.01 -0.000797626
49.02 -0.00205648
49.03 -0.00364298
49.04 -0.00544817
49.05 -0.00735011
49.06 -0.0092209
49.07 -0.0109341
49.08 -0.012372
49.09 -0.0134327
49.1 -0.013995
49.11 -0.0140348
49.12 -0.013543
49.13 -0.012535
49.14 -0.0110579
49.15 -0.00918687
49.16 -0.00702181
49.17 -0.00468146
49.18 -0.0022991
49.19 -2.90226e-05
49.2 0.00199741
49.21 0.00366404
49.22 0.0048753
49.23 0.00556228
49.24 0.00568735
49.25 0.00524704
49.26 0.0042731
49.27 0.00280798
49.28 0.000979198
49.29 -0.00107065
49.3 -0.00319532
49.31 -0.0052389
49.32 -0.00704477
49.33 -0.00846461
49.34 -0.00936743
49.35 -0.00964143
49.36 -0.00915684
49.37 -0.00794305
49.38 -0.00601682
49.39 -0.00343759
49.4 -0.00030575
49.41 0.00324122
49.42 0.00703486
49.43 0.0108835
49.44 0.014564
49.45 0.017842
49.46 0.020528
49.47 0.0224458
49.48 0.0234498
49.49 0.0234339
49.5 0.022338
49.51 0.0201521
49.52 0.0169189
49.53 0.0126617
49.54 0.00762028
49.55 0.00199508
49.56 -0.00398765
49.57 -0.01008
49.58 -0.016024
49.59 -0.0215641
49.6 -0.0264589
49.61 -0.0304592
49.62 -0.033342
49.63 -0.0350425
49.64 -0.0354952
49.65 -0.0346921
49.66 -0.0326832
49.67 -0.0295745
49.68 -0.0255224
49.69 -0.0207267
49.7 -0.0154029
49.71 -0.00985934
49.72 -0.00437133
49.73 0.000803776
49.74 0.00542843
49.75 0.00929656
49.76 0.0122436
49.77 0.0141545
49.78 0.0149502
49.79 0.0145683
49.8 0.0131619
49.81 0.0108519
49.82 0.00780465
49.83 0.00422373
49.84 0.000338442
49.85 -0.00360813
49.86 -0.00737213
49.87 -0.0106862
49.88 -0.0133312
49.89 -0.0151627
49.9 -0.0160661
49.91 -0.0159796
49.92 -0.014898
49.93 -0.0128721
49.94 -0.010007
49.95 -0.0064556
49.96 -0.00238873
49.97 0.00190253
49.98 0.00617307
49.99 0.0101756
50 0.0136738
50.01 0.0164548
50.02 0.018341
50.03 0.0191993
50.04 0.0189025
50.05 0.0174177
50.06 0.0148541
50.07 0.0113185
50.08 0.00696956
50.09 0.00201079
50.1 -0.00331955
50.11 -0.00876004
50.12 -0.014039
50.13 -0.0188329
50.14 -0.0229001
50.15 -0.0260342
50.16 -0.028066
50.17 -0.0288783
50.18 -0.0284122
50.19 -0.0266703
50.2 -0.0237167
50.21 -0.0196518
50.22 -0.0146379
50.23 -0.00897913
50.24 -0.00293762
50.25 0.00320581
50.26 0.00916483
50.27 0.0146612
50.28 0.0194382
50.29 0.0232722
50.3 0.0259024
50.31 0.0272362
50.32 0.027253
50.33 0.0259597
50.34 0.023424
50.35 0.0197705
50.36 0.0151744
50.37 0.00985292
50.38 0.00405298
50.39 -0.00194478
50.4 -0.0078291
50.41 -0.0133351
50.42 -0.0182198
50.43 -0.0222727
50.44 -0.0253254
50.45 -0.0272583
50.46 -0.0280055
50.47 -0.0275
50.48 -0.0258047
50.49 -0.0230813
50.5 -0.0194822
50.51 -0.0151951
50.52 -0.0104344
50.53 -0.00542964
50.54 -0.000414578
50.55 0.00438388
50.56 0.00870217
50.57 0.0123837
50.58 0.015293
50.59 0.0173341
50.6 0.0184559
50.61 0.0186536
50.62 0.0179667
50.63 0.016476
50.64 0.0142798
50.65 0.011528
50.66 0.00842974
50.67 0.00516212
50.68 0.00190169
50.69 -0.00118441
50.7 -0.00394663
50.71 -0.00625992
50.72 -0.00802925
50.73 -0.00914719
50.74 -0.00962279
50.75 -0.00948745
50.76 -0.00879251
50.77 -0.00761815
50.78 -0.00606792
50.79 -0.00426224
50.8 -0.00233108
50.81 -0.000409065
50.82 0.00135738
50.83 0.00286048
50.84 0.00401063
50.85 0.00474317
50.86 0.0050215
50.87 0.00483876
50.88 0.00421777
50.89 0.00320944
50.9 0.00187741
50.91 0.000338011
50.92 -0.00128408
50.93 -0.0028686
50.94 -0.00429534
50.95 -0.00545097
50.96 -0.00623538
50.97 -0.00656736
50.98 -0.00638791
50.99 -0.00561828
51 -0.00431198
51.01 -0.00250457
51.02 -0.000259906
51.03 0.00233269
51.04 0.0051625
51.05 0.00810259
51.06 0.0110158
51.07 0.0137481
51.08 0.0161427
51.09 0.018085
51.1 0.0194682
51.11 0.0202085
51.12 0.0202492
51.13 0.0195637
51.14 0.018157
51.15 0.016066
51.16 0.0133154
51.17 0.0100556
51.18 0.0064181
51.19 0.00254401
51.2 -0.00141451
51.21 -0.00530066
51.22 -0.00895976
51.23 -0.0122459
51.24 -0.0150119
51.25 -0.0171126
51.26 -0.0185056
51.27 -0.019143
51.28 -0.0190082
51.29 -0.0181174
51.3 -0.016518
51.31 -0.014287
51.32 -0.0115273
51.33 -0.00834628
51.34 -0.00491669
51.35 -0.00140161
51.36 0.00204512
51.37 0.00527438
51.38 0.00814805
51.39 0.0105449
51.4 0.0123655
51.41 0.013529
51.42 0.0139398
51.43 0.0136473
51.44 0.0126772
51.45 0.0110853
51.46 0.00895481
51.47 0.00639315
51.48 0.00352682
51.49 0.000496208
51.5 -0.00254347
51.51 -0.00542442
51.52 -0.00800475
51.53 -0.0101555
51.54 -0.0117665
51.55 -0.0127507
51.56 -0.0130487
51.57 -0.0126311
51.58 -0.0114998
51.59 -0.00963339
51.6 -0.00716404
51.61 -0.00419297
51.62 -0.000841241
51.63 0.00275213
51.64 0.00643602
51.65 0.0100535
51.66 0.0134486
51.67 0.0164551
51.68 0.0189124
51.69 0.020735
51.7 0.0218405
51.71 0.0221762
51.72 0.0217219
51.73 0.0204909
51.74 0.0185296
51.75 0.0159158
51.76 0.012725
51.77 0.00913276
51.78 0.0053019
51.79 0.00139465
51.8 -0.00242323
51.81 -0.00598969
51.82 -0.00915337
51.83 -0.0117802
51.84 -0.0137453
51.85 -0.0149196
51.86 -0.0153104
51.87 -0.0149096
51.88 -0.013744
51.89 -0.0118744
51.9 -0.00939269
51.91 -0.00641799
51.92 -0.00309142
51.93 0.000431596
51.94 0.00396144
51.95 0.00732594
51.96 0.0103674
51.97 0.0129431
51.98 0.0149321
51.99 0.01624
52 0.0168037
52.01 0.0165912
52.02 0.0155451
52.03 0.0137845
52.04 0.0113899
52.05 0.00846981
52.06 0.00515556
52.07 0.00159543
52.08 -0.00205242
52.09 -0.0056272
52.1 -0.00895651
52.11 -0.0118773
52.12 -0.0142823
52.13 -0.0160765
52.14 -0.0171945
52.15 -0.0176029
52.16 -0.017301
52.17 -0.0163209
52.18 -0.0147249
52.19 -0.0125684
52.2 -0.0100126
52.21 -0.00719416
52.22 -0.00425129
52.23 -0.00132321
52.24 0.00145679
52.25 0.00396776
52.26 0.00610689
52.27 0.00778027
52.28 0.00891175
52.29 0.00951433
52.3 0.00959905
52.31 0.00920461
52.32 0.00839461
52.33 0.0072535
52.34 0.00588154
52.35 0.0043889
52.36 0.00289659
52.37 0.00152643
52.38 0.00037681
52.39 -0.000469897
52.4 -0.00095204
52.41 -0.00103203
52.42 -0.000698343
52.43 3.38737e-05
52.44 0.00112716
52.45 0.00252917
52.46 0.00412293
52.47 0.00580683
52.48 0.0074715
52.49 0.00900601
52.5 0.0103042
52.51 0.0112709
52.52 0.0118274
52.53 0.0118902
52.54 0.01143
52.55 0.0104683
52.56 0.00903382
52.57 0.00718188
52.58 0.00499207
52.59 0.00256415
52.6 1.31779e-05
52.61 -0.00253638
52.62 -0.00493406
52.63 -0.00705881
52.64 -0.00880127
52.65 -0.0100693
52.66 -0.0107935
52.67 -0.010931
52.68 -0.0104675
52.69 -0.00941902
52.7 -0.00781403
52.71 -0.00572588
52.72 -0.00328665
52.73 -0.000614531
52.74 0.00216088
52.75 0.00490516
52.76 0.00748583
52.77 0.00977906
52.78 0.011676
52.79 0.0130467
52.8 0.0138528
52.81 0.0140753
52.82 0.0137153
52.83 0.0128032
52.84 0.0113971
52.85 0.00957945
52.86 0.00745213
52.87 0.00513016
52.88 0.00274761
52.89 0.000441985
52.9 -0.00166938
52.91 -0.00348249
52.92 -0.00491206
52.93 -0.00589583
52.94 -0.00639763
52.95 -0.00640901
52.96 -0.00592409
52.97 -0.00500917
52.98 -0.00375481
52.99 -0.00225332
53 -0.000609602
53.01 0.00106494
53.02 0.00265885
53.03 0.00406708
53.04 0.00519539
53.05 0.00593392
53.06 0.00626252
53.07 0.0061608
53.08 0.00563573
53.09 0.0047214
53.1 0.00347731
53.11 0.00198516
53.12 0.00034442
53.13 -0.00132933
53.14 -0.0029029
53.15 -0.00425952
53.16 -0.00529277
53.17 -0.0059117
53.18 -0.00604635
53.19 -0.0056522
53.2 -0.0047133
53.21 -0.00324401
53.22 -0.00125469
53.23 0.00113491
53.24 0.0038149
53.25 0.00666088
53.26 0.00953465
53.27 0.012291
53.28 0.014785
53.29 0.0168792
53.3 0.0184332
53.31 0.0193137
53.32 0.0194892
53.33 0.0189244
53.34 0.0176186
53.35 0.015606
53.36 0.0129554
53.37 0.00976666
53.38 0.00616734
53.39 0.00230051
53.4 -0.00163965
53.41 -0.00547386
53.42 -0.00903145
53.43 -0.0121517
53.44 -0.0146912
53.45 -0.0165302
53.46 -0.0175785
53.47 -0.0177681
53.48 -0.0170206
53.49 -0.0154314
53.5 -0.0130617
53.51 -0.0100063
53.52 -0.00638909
53.53 -0.00235731
53.54 0.00192445
53.55 0.00628157
53.56 0.0105221
53.57 0.014455
53.58 0.0179296
53.59 0.0208101
53.6 0.0229861
53.61 0.0243772
53.62 0.0249351
53.63 0.0246451
53.64 0.0235264
53.65 0.021566
53.66 0.0189245
53.67 0.0157144
53.68 0.0120652
53.69 0.0081196
53.7 0.00402742
53.71 -6.03172e-05
53.72 -0.00399726
53.73 -0.00763191
53.74 -0.0108221
53.75 -0.013488
53.76 -0.0155548
53.77 -0.0169718
53.78 -0.0177134
53.79 -0.0177783
53.8 -0.0171887
53.81 -0.0159883
53.82 -0.0142036
53.83 -0.0119536
53.84 -0.00933993
53.85 -0.00646177
53.86 -0.00342165
53.87 -0.000322225
53.88 0.00273705
53.89 0.00566276
53.9 0.00836357
53.91 0.0107429
53.92 0.012758
53.93 0.0143623
53.94 0.0155229
53.95 0.0162203
53.96 0.0164485
53.97 0.0162143
53.98 0.0155365
53.99 0.0144227
54 0.0129303
54.01 0.0111244
54.02 0.00906364
54.03 0.00681285
54.04 0.00444162
54.05 0.00202272
54.06 -0.000369376
54.07 -0.00265921
54.08 -0.00475286
54.09 -0.00659257
54.1 -0.00811653
54.11 -0.00927084
54.12 -0.0100114
54.13 -0.0103055
54.14 -0.0101333
54.15 -0.00948944
54.16 -0.00836347
54.17 -0.00678364
54.18 -0.00481643
54.19 -0.00252
54.2 3.44768e-05
54.21 0.00276471
54.22 0.00557982
54.23 0.00838321
54.24 0.0110759
54.25 0.0135347
54.26 0.0156756
54.27 0.0174193
54.28 0.0186977
54.29 0.0194585
54.3 0.0196681
54.31 0.0193133
54.32 0.0184019
54.33 0.0169496
54.34 0.0149978
54.35 0.0126539
54.36 0.0100072
54.37 0.0071593
54.38 0.00422019
54.39 0.0013037
54.4 -0.00147703
54.41 -0.00401431
54.42 -0.00618084
54.43 -0.00790153
54.44 -0.00912379
54.45 -0.00980696
54.46 -0.0099328
54.47 -0.0095061
54.48 -0.00855429
54.49 -0.00712602
54.5 -0.00528437
54.51 -0.00310092
54.52 -0.000704964
54.53 0.00179988
54.54 0.00430832
54.55 0.00671791
54.56 0.00893354
54.57 0.0108713
54.58 0.0124618
54.59 0.0136296
54.6 0.014345
54.61 0.0146157
54.62 0.0144518
54.63 0.0138815
54.64 0.0129485
54.65 0.0117096
54.66 0.0102312
54.67 0.00858566
54.68 0.00684572
54.69 0.00509798
54.7 0.00340898
54.71 0.00183658
54.72 0.000427898
54.73 -0.000782103
54.74 -0.00177132
54.75 -0.00253042
54.76 -0.00305395
54.77 -0.00335365
54.78 -0.00346546
54.79 -0.00341772
54.8 -0.00324139
54.81 -0.00296728
54.82 -0.00262365
54.83 -0.00223396
54.84 -0.00181521
54.85 -0.00137543
54.86 -0.00091604
54.87 -0.000429204
54.88 9.98036e-05
54.89 0.000690626
54.9 0.00136572
54.91 0.00214791
54.92 0.0030578
54.93 0.00411458
54.94 0.00533432
54.95 0.00670331
54.96 0.00820723
54.97 0.00982005
54.98 0.011504
54.99 0.0132106
55 0.014882
55.01 0.0164537
55.02 0.0178421
55.03 0.0189756
55.04 0.0197955
55.05 0.0202452
55.06 0.0202795
55.07 0.0198681
55.08 0.0189977
55.09 0.0176741
55.1 0.0159207
55.11 0.0137588
55.12 0.0112943
55.13 0.00861224
55.14 0.00581051
55.15 0.00299587
55.16 0.000279377
55.17 -0.00222851
55.18 -0.00442302
55.19 -0.00618748
55.2 -0.00743441
55.21 -0.00812984
55.22 -0.00824268
55.23 -0.00776696
55.24 -0.00672252
55.25 -0.00515458
55.26 -0.00313209
55.27 -0.00074502
55.28 0.00191115
55.29 0.00468523
55.3 0.00744748
55.31 0.0100704
55.32 0.0124322
55.33 0.0144226
55.34 0.0159475
55.35 0.0169335
55.36 0.0173125
55.37 0.0170418
55.38 0.0161702
55.39 0.0147355
55.4 0.0128002
55.41 0.0104494
55.42 0.00778576
55.43 0.00492571
55.44 0.00199355
55.45 -0.000871306
55.46 -0.00353646
55.47 -0.00589219
55.48 -0.00784223
55.49 -0.00930954
55.5 -0.0102394
55.51 -0.0106013
55.52 -0.0103902
55.53 -0.00961819
55.54 -0.00830244
55.55 -0.00655525
55.56 -0.00446168
55.57 -0.00211884
55.58 0.00036887
55.59 0.00289478
55.6 0.00535489
55.61 0.00765262
55.62 0.00968555
55.63 0.0113814
55.64 0.0127032
55.65 0.0136234
55.66 0.0141349
55.67 0.0142501
55.68 0.014
55.69 0.013431
55.7 0.0126027
55.71 0.0115727
55.72 0.0104388
55.73 0.00927533
55.74 0.00815289
55.75 0.00713437
55.76 0.00627212
55.77 0.00560542
55.78 0.00515885
55.79 0.00495006
55.8 0.00497348
55.81 0.00519175
55.82 0.00556773
55.83 0.00605414
55.84 0.0065965
55.85 0.00713638
55.86 0.00761481
55.87 0.00797568
55.88 0.00815254
55.89 0.00811261
55.9 0.00783197
55.91 0.00729737
55.92 0.00650982
55.93 0.0054848
55.94 0.00425157
55.95 0.00285198
55.96 0.00133734
55.97 -0.00022689
55.98 -0.00176646
55.99 -0.00321332
56 -0.00450133
56.01 -0.00556934
56.02 -0.00636416
56.03 -0.00684306
56.04 -0.00697585
56.05 -0.00672363
56.06 -0.00609856
56.07 -0.00512976
56.08 -0.00384927
56.09 -0.00230234
56.1 -0.000545593
56.11 0.00135528
56.12 0.00332819
56.13 0.00529697
56.14 0.00717217
56.15 0.00888329
56.16 0.010365
56.17 0.0115611
56.18 0.0124268
56.19 0.0129309
56.2 0.0130563
56.21 0.0128013
56.22 0.0121636
56.23 0.011177
56.24 0.00990373
56.25 0.0084002
56.26 0.00673202
56.27 0.00497142
56.28 0.00319438
56.29 0.00147766
56.3 -0.000104287
56.31 -0.00145924
56.32 -0.00253853
56.33 -0.00329611
56.34 -0.00369736
56.35 -0.00372216
56.36 -0.00336578
56.37 -0.00263919
56.38 -0.00156873
56.39 -0.00018739
56.4 0.00145133
56.41 0.00326203
56.42 0.00517042
56.43 0.00709757
56.44 0.00896313
56.45 0.0106886
56.46 0.0122005
56.47 0.0134336
56.48 0.0143071
56.49 0.0147943
56.5 0.0148815
56.51 0.014564
56.52 0.0138544
56.53 0.012782
56.54 0.011392
56.55 0.00974376
56.56 0.00790661
56.57 0.00596264
56.58 0.00401146
56.59 0.00213949
56.6 0.000430003
56.61 -0.00104067
56.62 -0.00220664
56.63 -0.00301551
56.64 -0.00343096
56.65 -0.00341179
56.66 -0.00296816
56.67 -0.00214048
56.68 -0.00097115
56.69 0.000481093
56.7 0.00214381
56.71 0.00393412
56.72 0.00576259
56.73 0.00753734
56.74 0.00914729
56.75 0.010518
56.76 0.0115801
56.77 0.0122797
56.78 0.0125808
56.79 0.0124675
56.8 0.011945
56.81 0.0110394
56.82 0.00978644
56.83 0.00825585
56.84 0.00654739
56.85 0.00475236
56.86 0.00296701
56.87 0.00128752
56.88 -0.000195156
56.89 -0.00140026
56.9 -0.0022618
56.91 -0.00269934
56.92 -0.0027137
56.93 -0.00231471
56.94 -0.00153048
56.95 -0.000412531
56.96 0.00096643
56.97 0.00251587
56.98 0.00413184
56.99 0.00569822
57 0.00708103
57.01 0.00817644
57.02 0.00888817
57.03 0.00913756
57.04 0.0088686
57.05 0.00805189
57.06 0.0066874
57.07 0.0048058
57.08 0.00244506
57.09 -0.000276247
57.1 -0.0032241
57.11 -0.00625941
57.12 -0.00923048
57.13 -0.0119803
57.14 -0.014354
57.15 -0.016207
57.16 -0.0174059
57.17 -0.0177837
57.18 -0.0173348
57.19 -0.0160329
57.2 -0.0138906
57.21 -0.0109607
57.22 -0.0073346
57.23 -0.00313937
57.24 0.00146708
57.25 0.00630354
57.26 0.0111442
57.27 0.0157732
57.28 0.0199883
57.29 0.0236016
57.3 0.0264477
57.31 0.0283921
57.32 0.0293381
57.33 0.0292318
57.34 0.0279757
57.35 0.0257053
57.36 0.022523
57.37 0.018565
57.38 0.0140025
57.39 0.0090344
57.4 0.00387783
57.41 -0.00124138
57.42 -0.00608343
57.43 -0.0104004
57.44 -0.0140277
57.45 -0.0168155
57.46 -0.0186541
57.47 -0.0194783
57.48 -0.0192706
57.49 -0.0180612
57.5 -0.0159266
57.51 -0.0129384
57.52 -0.00931104
57.53 -0.0052493
57.54 -0.00095623
57.55 0.00335939
57.56 0.00749345
57.57 0.0112566
57.58 0.0144834
57.59 0.0170274
57.6 0.0187417
57.61 0.0196379
57.62 0.0197187
57.63 0.0190304
57.64 0.0176599
57.65 0.015729
57.66 0.0133874
57.67 0.0108043
57.68 0.00816532
57.69 0.00566988
57.7 0.00348334
57.71 0.0017473
57.72 0.000573348
57.73 3.68179e-05
57.74 0.000172606
57.75 0.000973135
57.76 0.00238938
57.77 0.00436839
57.78 0.00672271
57.79 0.00929559
57.8 0.0119134
57.81 0.0143954
57.82 0.0165639
57.83 0.0182547
57.84 0.0193263
57.85 0.0196356
57.86 0.0190969
57.87 0.0177323
57.88 0.0155695
57.89 0.012682
57.9 0.00918536
57.91 0.00523264
57.92 0.00100653
57.93 -0.00328942
57.94 -0.00741213
57.95 -0.0111395
57.96 -0.0142772
57.97 -0.0166535
57.98 -0.0181315
57.99 -0.0186165
58 -0.0180616
58.01 -0.0164713
58.02 -0.0138799
58.03 -0.0103725
58.04 -0.00617754
58.05 -0.00149274
58.06 0.00345734
58.07 0.00843203
58.08 0.0131863
58.09 0.0174827
58.1 0.0211032
58.11 0.0237944
58.12 0.0254293
58.13 0.0259463
58.14 0.025311
58.15 0.0235443
58.16 0.020722
58.17 0.0169708
58.18 0.0124628
58.19 0.00740395
58.2 0.00203185
58.21 -0.00335743
58.22 -0.00851159
58.23 -0.0131908
58.24 -0.017179
58.25 -0.0202949
58.26 -0.0223995
58.27 -0.0234036
58.28 -0.0232161
58.29 -0.0218697
58.3 -0.0195001
58.31 -0.0162389
58.32 -0.0122585
58.33 -0.00776285
58.34 -0.00297708
58.35 0.00186378
58.36 0.00652664
58.37 0.0107392
58.38 0.0143281
58.39 0.0171438
58.4 0.0190771
58.41 0.0200666
58.42 0.0201006
58.43 0.019217
58.44 0.0175001
58.45 0.0150583
58.46 0.0120591
58.47 0.00873475
58.48 0.00528762
58.49 0.00192178
58.5 -0.00116786
58.51 -0.00380569
58.52 -0.00584433
58.53 -0.00717202
58.54 -0.00765915
58.55 -0.00732426
58.56 -0.00621396
58.57 -0.00440086
58.58 -0.00199608
58.59 0.000857016
58.6 0.00399083
58.61 0.00722259
58.62 0.010359
58.63 0.0131827
58.64 0.0155388
58.65 0.0172889
58.66 0.0183273
58.67 0.0185863
58.68 0.0180394
58.69 0.0167028
58.7 0.014634
58.71 0.0119003
58.72 0.00866338
58.73 0.00510724
58.74 0.00140898
58.75 -0.00224717
58.76 -0.00567916
58.77 -0.00871618
58.78 -0.0112071
58.79 -0.013026
58.8 -0.0140083
58.81 -0.0141729
58.82 -0.0135149
58.83 -0.0120688
58.84 -0.00990635
58.85 -0.00713252
58.86 -0.00387997
58.87 -0.000302304
58.88 0.0034327
58.89 0.00713176
58.9 0.0106212
58.91 0.0137473
58.92 0.0163766
58.93 0.0184009
58.94 0.0197417
58.95 0.0203534
58.96 0.0202235
58.97 0.0193185
58.98 0.0177482
58.99 0.0156067
59 0.0129993
59.01 0.0100468
59.02 0.00687922
59.03 0.00362903
59.04 0.000425539
59.05 -0.00260361
59.06 -0.00533051
59.07 -0.00768366
59.08 -0.00959988
59.09 -0.011038
59.1 -0.0119787
59.11 -0.0124236
59.12 -0.0123926
59.13 -0.0119215
59.14 -0.0110361
59.15 -0.00981387
59.16 -0.00832691
59.17 -0.00663599
59.18 -0.0047986
59.19 -0.00286656
59.2 -0.00088423
59.21 0.00111233
59.22 0.00309508
59.23 0.00504027
59.24 0.00693698
59.25 0.00877667
59.26 0.0105524
59.27 0.0122566
59.28 0.0138787
59.29 0.0154035
59.3 0.0168097
59.31 0.0180601
59.32 0.0191155
59.33 0.0199411
59.34 0.0204912
59.35 0.0207194
59.36 0.0205806
59.37 0.020035
59.38 0.0190512
59.39 0.0176093
59.4 0.0156638
59.41 0.0132704
59.42 0.0104668
59.43 0.00730817
59.44 0.00386849
59.45 0.000239015
59.46 -0.00347446
59.47 -0.00715533
59.48 -0.0106707
59.49 -0.013875
59.5 -0.0166607
59.51 -0.0189212
59.52 -0.0205667
59.53 -0.0215283
59.54 -0.0217624
59.55 -0.021253
59.56 -0.0200134
59.57 -0.0180407
59.58 -0.0154537
59.59 -0.0123681
59.6 -0.00890605
59.61 -0.00520445
59.62 -0.00140931
59.63 0.00233098
59.64 0.00587234
59.65 0.00907287
59.66 0.0117809
59.67 0.013935
59.68 0.0154746
59.69 0.0163686
59.7 0.0166169
59.71 0.0162492
59.72 0.0153234
59.73 0.013922
59.74 0.0121327
59.75 0.010095
59.76 0.00794688
59.77 0.00581244
59.78 0.00380833
59.79 0.00203766
59.8 0.000584657
59.81 -0.000489626
59.82 -0.00114881
59.83 -0.0013507
59.84 -0.00116004
59.85 -0.000628687
59.86 0.000169766
59.87 0.00114466
59.88 0.00219393
59.89 0.00321043
59.9 0.0040885
59.91 0.00471675
59.92 0.00500118
59.93 0.0048966
59.94 0.00436994
59.95 0.00341566
59.96 0.00205676
59.97 0.000344168
59.98 -0.00164535
59.99 -0.00381292
60 -0.00603702
60.01 -0.00817389
60.02 -0.0100921
60.03 -0.0116657
60.04 -0.0127811
60.05 -0.0133432
60.06 -0.0132818
60.07 -0.0125555
60.08 -0.0111377
60.09 -0.00903451
60.1 -0.00635767
60.11 -0.00320464
60.12 0.000300254
60.13 0.00401133
60.14 0.0077682
60.15 0.0114033
60.16 0.0147498
60.17 0.0176105
60.18 0.0198497
60.19 0.0213698
60.2 0.0220911
60.21 0.0219691
60.22 0.0209967
60.23 0.0192049
60.24 0.0166616
60.25 0.0134626
60.26 0.00971768
60.27 0.00563749
60.28 0.00139399
60.29 -0.00283523
60.3 -0.00687523
60.31 -0.0105619
60.32 -0.0137493
60.33 -0.0163167
60.34 -0.0181341
60.35 -0.0191485
60.36 -0.0193797
60.37 -0.0188526
60.38 -0.0176263
60.39 -0.0157906
60.4 -0.0134611
60.41 -0.0107725
60.42 -0.007872
60.43 -0.00491963
60.44 -0.00208006
60.45 0.000511861
60.46 0.00274015
60.47 0.00451286
60.48 0.00576605
60.49 0.0064662
60.5 0.00661115
60.51 0.0062126
60.52 0.00532592
60.53 0.00406757
60.54 0.00254094
60.55 0.000861011
60.56 -0.000852267
60.57 -0.00248072
60.58 -0.00391445
60.59 -0.00505777
60.6 -0.00580272
60.61 -0.00611545
60.62 -0.0059825
60.63 -0.00541023
60.64 -0.00443129
60.65 -0.00310251
60.66 -0.00150142
60.67 0.000278251
60.68 0.00213104
60.69 0.00393369
60.7 0.00557483
60.71 0.00695611
60.72 0.00799321
60.73 0.00862033
60.74 0.00879369
60.75 0.00849377
60.76 0.0077263
60.77 0.00649919
60.78 0.00488602
60.79 0.00297997
60.8 0.000874086
60.81 -0.00132854
60.82 -0.00352014
60.83 -0.00559378
60.84 -0.00744881
60.85 -0.0089941
60.86 -0.0101179
60.87 -0.0107994
60.88 -0.0110109
60.89 -0.0107473
60.9 -0.0100258
60.91 -0.00888457
60.92 -0.00738033
60.93 -0.00558465
60.94 -0.00357495
60.95 -0.00145084
60.96 0.000687615
60.97 0.00275457
60.98 0.00467251
60.99 0.00637573
61 0.00781307
61.01 0.00894966
61.02 0.00976771
61.03 0.0102409
61.04 0.0104106
61.05 0.0103113
61.06 0.00998369
61.07 0.00947512
61.08 0.00883556
61.09 0.00811413
61.1 0.00735566
61.11 0.00659851
61.12 0.0058734
61.13 0.00519361
61.14 0.00456071
61.15 0.00396462
61.16 0.00338495
61.17 0.00279303
61.18 0.00215467
61.19 0.00143335
61.2 0.000583533
61.21 -0.00042271
61.22 -0.00160231
61.23 -0.00296388
61.24 -0.00450236
61.25 -0.00619778
61.26 -0.00801498
61.27 -0.00990419
61.28 -0.0118019
61.29 -0.0136222
61.3 -0.0152844
61.31 -0.0167054
61.32 -0.0178051
61.33 -0.0185106
61.34 -0.0187606
61.35 -0.0185095
61.36 -0.0177309
61.37 -0.0163931
61.38 -0.0145252
61.39 -0.0121968
61.4 -0.00947748
61.41 -0.00645634
61.42 -0.00323898
61.43 5.69826e-05
61.44 0.00330702
61.45 0.0063852
61.46 0.00913288
61.47 0.0114583
61.48 0.0132711
61.49 0.0145015
61.5 0.0151043
61.51 0.0150616
61.52 0.0143834
61.53 0.0131078
61.54 0.0112829
61.55 0.00900005
61.56 0.00640021
61.57 0.00360688
61.58 0.000750515
61.59 -0.00203763
61.6 -0.00463168
61.61 -0.00691701
61.62 -0.00879563
61.63 -0.0101498
61.64 -0.0109543
61.65 -0.0111991
61.66 -0.0108931
61.67 -0.0100716
61.68 -0.00879472
61.69 -0.00714352
61.7 -0.00521595
61.71 -0.00312063
61.72 -0.000982997
61.73 0.00107148
61.74 0.0029357
61.75 0.00451514
61.76 0.00573243
61.77 0.00653086
61.78 0.00687688
61.79 0.00676134
61.8 0.00617481
61.81 0.00517475
61.82 0.00383934
61.83 0.00224758
61.84 0.000489892
61.85 -0.00133687
61.86 -0.00313465
61.87 -0.00480934
61.88 -0.00627413
61.89 -0.007428
61.9 -0.00823966
61.91 -0.00867775
61.92 -0.00873167
61.93 -0.00841157
61.94 -0.00774723
61.95 -0.00678585
61.96 -0.00558903
61.97 -0.00422536
61.98 -0.0027833
61.99 -0.00135045
62 -2.86956e-06
62.01 0.00119133
62.02 0.00217557
62.03 0.00290759
62.04 0.00336137
62.05 0.00352807
62.06 0.00339457
62.07 0.00301046
62.08 0.00241984
62.09 0.00167449
62.1 0.000833139
62.11 -4.23006e-05
62.12 -0.000890652
62.13 -0.00165525
62.14 -0.0022823
62.15 -0.00272499
62.16 -0.00297088
62.17 -0.00301295
62.18 -0.00285883
62.19 -0.00253003
62.2 -0.00206025
62.21 -0.00149304
62.22 -0.000878778
62.23 -0.000275497
62.24 0.000258447
62.25 0.000675278
62.26 0.000934979
62.27 0.00100836
62.28 0.000879114
62.29 0.000545092
62.3 1.86487e-05
62.31 -0.000675611
62.32 -0.00150228
62.33 -0.00239739
62.34 -0.00330376
62.35 -0.00416153
62.36 -0.00491207
62.37 -0.00550178
62.38 -0.00588578
62.39 -0.00603105
62.4 -0.0059052
62.41 -0.00551091
62.42 -0.00487741
62.43 -0.00403961
62.44 -0.0030472
62.45 -0.00196217
62.46 -0.00085548
62.47 0.000196973
62.48 0.00111874
62.49 0.00181269
62.5 0.00223057
62.51 0.00232573
62.52 0.00206839
62.53 0.00144853
62.54 0.000477373
62.55 -0.000812404
62.56 -0.00236753
62.57 -0.00412009
62.58 -0.00597318
62.59 -0.00781668
62.6 -0.00954644
62.61 -0.0110593
62.62 -0.012259
62.63 -0.0130615
62.64 -0.0134
62.65 -0.0132297
62.66 -0.0124902
62.67 -0.011225
62.68 -0.00948467
62.69 -0.00733663
62.7 -0.00487223
62.71 -0.00220265
62.72 0.000546157
62.73 0.00323943
62.74 0.00573287
62.75 0.00786457
62.76 0.00953328
62.77 0.0106419
62.78 0.0111185
62.79 0.0109203
62.8 0.0100366
62.81 0.00849044
62.82 0.00633756
62.83 0.00364032
62.84 0.000544326
62.85 -0.00279256
62.86 -0.00621502
62.87 -0.00956087
62.88 -0.0126688
62.89 -0.0153862
62.9 -0.0175767
62.91 -0.0191225
62.92 -0.0198748
62.93 -0.0198489
62.94 -0.0190389
62.95 -0.0174756
62.96 -0.0152259
62.97 -0.0123895
62.98 -0.00909421
62.99 -0.00549007
63 -0.0017438
63.01 0.00195031
63.02 0.00541719
63.03 0.00849935
63.04 0.0110585
63.05 0.0129822
63.06 0.014189
63.07 0.0146327
63.08 0.0143038
63.09 0.0131724
63.1 0.0113699
63.11 0.00900599
63.12 0.00620923
63.13 0.00312739
63.14 -8.01063e-05
63.15 -0.0032502
63.16 -0.00622434
63.17 -0.0088419
63.18 -0.0109488
63.19 -0.0124745
63.2 -0.013357
63.21 -0.0135684
63.22 -0.013116
63.23 -0.0120419
63.24 -0.0104197
63.25 -0.00835109
63.26 -0.00594717
63.27 -0.00337768
63.28 -0.000798214
63.29 0.00164495
63.3 0.00381475
63.31 0.00559035
63.32 0.00687325
63.33 0.00759218
63.34 0.00769756
63.35 0.00714422
63.36 0.00601308
63.37 0.00436681
63.38 0.00229489
63.39 -9.13372e-05
63.4 -0.0026646
63.41 -0.00528851
63.42 -0.00782468
63.43 -0.0101211
63.44 -0.0120476
63.45 -0.0135163
63.46 -0.0144543
63.47 -0.0148168
63.48 -0.014589
63.49 -0.0137867
63.5 -0.0124548
63.51 -0.0106648
63.52 -0.00848742
63.53 -0.00607886
63.54 -0.00356396
63.55 -0.00107035
63.56 0.00127786
63.57 0.00336636
63.58 0.00509641
63.59 0.00638962
63.6 0.00717161
63.61 0.00740561
63.62 0.00712542
63.63 0.0063634
63.64 0.00517596
63.65 0.00363998
63.66 0.00184824
63.67 -9.59138e-05
63.68 -0.0020844
63.69 -0.00399757
63.7 -0.00573188
63.71 -0.00720503
63.72 -0.00835144
63.73 -0.00912671
63.74 -0.00950957
63.75 -0.00950252
63.76 -0.00913118
63.77 -0.00843666
63.78 -0.00748038
63.79 -0.00636579
63.8 -0.00518183
63.81 -0.00401971
63.82 -0.00296743
63.83 -0.00210457
63.84 -0.00149753
63.85 -0.00119561
63.86 -0.00124931
63.87 -0.00165313
63.88 -0.00237565
63.89 -0.00337484
63.9 -0.00458954
63.91 -0.00594286
63.92 -0.00734637
63.93 -0.0087051
63.94 -0.00992104
63.95 -0.0108754
63.96 -0.0115027
63.97 -0.011739
63.98 -0.0115404
63.99 -0.0108848
64 -0.00977462
64.01 -0.00823642
64.02 -0.00632073
64.03 -0.00408983
64.04 -0.00164805
64.05 0.000882939
64.06 0.00338751
64.07 0.0057476
64.08 0.0078484
64.09 0.00958393
64.1 0.0108622
64.11 0.0116096
64.12 0.0117223
64.13 0.0112215
64.14 0.010118
64.15 0.00844422
64.16 0.00625728
64.17 0.00363676
64.18 0.000681016
64.19 -0.00249717
64.2 -0.00577447
64.21 -0.00900907
64.22 -0.0120721
64.23 -0.0148482
64.24 -0.0172347
64.25 -0.0191463
64.26 -0.0205176
64.27 -0.0213064
64.28 -0.0214938
64.29 -0.0210453
64.3 -0.0200238
64.31 -0.0184981
64.32 -0.0165403
64.33 -0.0142371
64.34 -0.0116848
64.35 -0.00898583
64.36 -0.00624402
64.37 -0.00356298
64.38 -0.00105572
64.39 0.00120193
64.4 0.00314168
64.41 0.00471042
64.42 0.00587124
64.43 0.00660381
64.44 0.0069039
64.45 0.00678237
64.46 0.00624367
64.47 0.00533556
64.48 0.00412016
64.49 0.00265012
64.5 0.00098159
64.51 -0.000828015
64.52 -0.00272213
64.53 -0.00464677
64.54 -0.00655189
64.55 -0.00838262
64.56 -0.0101035
64.57 -0.0116821
64.58 -0.0130918
64.59 -0.0143111
64.6 -0.0153234
64.61 -0.0161159
64.62 -0.0166795
64.63 -0.0169987
64.64 -0.0170661
64.65 -0.0168938
64.66 -0.0164835
64.67 -0.0158393
64.68 -0.0149679
64.69 -0.0138796
64.7 -0.0125883
64.71 -0.011112
64.72 -0.00946314
64.73 -0.0076831
64.74 -0.00580834
64.75 -0.00387754
64.76 -0.00193355
64.77 -2.25371e-05
64.78 0.00180718
64.79 0.00350653
64.8 0.00502181
64.81 0.00629239
64.82 0.00729155
64.83 0.00798611
64.84 0.00835116
64.85 0.0083714
64.86 0.00804212
64.87 0.00736983
64.88 0.00637246
64.89 0.0050628
64.9 0.00349552
64.91 0.00172999
64.92 -0.000176622
64.93 -0.00216232
64.94 -0.0041626
64.95 -0.00611284
64.96 -0.0079508
64.97 -0.00961707
64.98 -0.0110397
64.99 -0.0121945
65 -0.0130526
65.01 -0.0135962
65.02 -0.0138196
65.03 -0.0137286
65.04 -0.0133401
65.05 -0.0126811
65.06 -0.0117779
65.07 -0.0106791
65.08 -0.00944318
65.09 -0.0081201
65.1 -0.00675975
65.11 -0.00541005
65.12 -0.00411523
65.13 -0.00291427
65.14 -0.00183982
65.15 -0.000932204
65.16 -0.000197439
65.17 0.000356923
65.18 0.00072926
65.19 0.000924242
65.2 0.000951865
65.21 0.000826336
65.22 0.000564877
65.23 0.00018342
65.24 -0.000298913
65.25 -0.00085583
65.26 -0.00146941
65.27 -0.00212353
65.28 -0.00280409
65.29 -0.0034991
65.3 -0.00419845
65.31 -0.00489353
65.32 -0.00557543
65.33 -0.00623686
65.34 -0.00687072
65.35 -0.0074688
65.36 -0.00802167
65.37 -0.00851846
65.38 -0.00894681
65.39 -0.00929303
65.4 -0.00954059
65.41 -0.00966613
65.42 -0.00966299
65.43 -0.00951831
65.44 -0.00922173
65.45 -0.00876631
65.46 -0.0081494
65.47 -0.00737336
65.48 -0.00644612
65.49 -0.00537486
65.5 -0.00418488
65.51 -0.00290783
65.52 -0.00157503
65.53 -0.000221666
65.54 0.00111437
65.55 0.00239379
65.56 0.00357739
65.57 0.00462736
65.58 0.00549083
65.59 0.00615207
65.6 0.0065883
65.61 0.00678364
65.62 0.00672972
65.63 0.006426
65.64 0.00587972
65.65 0.00510553
65.66 0.00411768
65.67 0.00294512
65.68 0.00163176
65.69 0.000213616
65.7 -0.00127157
65.71 -0.0027857
65.72 -0.0042916
65.73 -0.00575416
65.74 -0.00714129
65.75 -0.00841447
65.76 -0.00955504
65.77 -0.0105463
65.78 -0.0113745
65.79 -0.0120306
65.8 -0.0125092
65.81 -0.0128089
65.82 -0.0129311
65.83 -0.0128757
65.84 -0.0126426
65.85 -0.012252
65.86 -0.0117136
65.87 -0.0110385
65.88 -0.0102392
65.89 -0.00932964
65.9 -0.00832555
65.91 -0.00724467
65.92 -0.00610485
65.93 -0.00493346
65.94 -0.00375783
65.95 -0.00260616
65.96 -0.00150871
65.97 -0.000497242
65.98 0.000395788
65.99 0.00113833
66 0.00169802
66.01 0.00202955
66.02 0.00212742
66.03 0.00197688
66.04 0.00157113
66.05 0.000912457
66.06 1.3165e-05
66.07 -0.00110399
66.08 -0.00240576
66.09 -0.00385309
66.1 -0.00538547
66.11 -0.00693551
66.12 -0.00843716
66.13 -0.00982214
66.14 -0.0110228
66.15 -0.0119749
66.16 -0.0126213
66.17 -0.0129141
66.18 -0.0127818
66.19 -0.0122365
66.2 -0.0112803
66.21 -0.00993041
66.22 -0.00822146
66.23 -0.00620487
66.24 -0.0039472
66.25 -0.00152777
66.26 0.000963457
66.27 0.00341921
66.28 0.00573905
66.29 0.00782968
66.3 0.00960559
66.31 0.0109931
66.32 0.011934
66.33 0.0123882
66.34 0.0123366
66.35 0.0117466
66.36 0.0106742
66.37 0.00918082
66.38 0.00733561
66.39 0.00522337
66.4 0.00294076
66.41 0.000591871
66.42 -0.00171665
66.43 -0.00387617
66.44 -0.00576661
66.45 -0.00731913
66.46 -0.00846977
66.47 -0.00917473
66.48 -0.00941254
66.49 -0.00918506
66.5 -0.0085173
66.51 -0.00745624
66.52 -0.00605467
66.53 -0.00441346
66.54 -0.00264141
66.55 -0.000841366
66.56 0.000882987
66.57 0.00243236
66.58 0.00371675
66.59 0.00465996
66.6 0.00520228
66.61 0.00526435
66.62 0.0048732
66.63 0.00404085
66.64 0.00280129
66.65 0.00120842
66.66 -0.000666814
66.67 -0.0027403
66.68 -0.00491912
66.69 -0.0071026
66.7 -0.00918271
66.71 -0.0110721
66.72 -0.0126946
66.73 -0.0139894
66.74 -0.0149134
66.75 -0.0154431
66.76 -0.0155754
66.77 -0.015327
66.78 -0.0147092
66.79 -0.013803
66.8 -0.0126783
66.81 -0.011408
66.82 -0.0100677
66.83 -0.00873124
66.84 -0.00746667
66.85 -0.00633213
66.86 -0.0053781
66.87 -0.00464432
66.88 -0.00412709
66.89 -0.00381809
66.9 -0.00369295
66.91 -0.00371337
66.92 -0.00382994
66.93 -0.0039858
66.94 -0.00412068
66.95 -0.00416634
66.96 -0.0040671
66.97 -0.00378359
66.98 -0.00328752
66.99 -0.00256662
67 -0.00162613
67.01 -0.000489192
67.02 0.000803829
67.03 0.00219747
67.04 0.00361791
67.05 0.00497906
67.06 0.00619937
67.07 0.00719907
67.08 0.00790514
67.09 0.00825602
67.1 0.00820583
67.11 0.00772788
67.12 0.00679645
67.13 0.00543726
67.14 0.00371597
67.15 0.00170017
67.16 -0.00052419
67.17 -0.00285672
67.18 -0.0051875
67.19 -0.00740267
67.2 -0.00939032
67.21 -0.0110088
67.22 -0.0121917
67.23 -0.012875
67.24 -0.0130176
67.25 -0.0126051
67.26 -0.011652
67.27 -0.0102008
67.28 -0.00832137
67.29 -0.00609971
67.3 -0.00365841
67.31 -0.00114603
67.32 0.00130245
67.33 0.00355323
67.34 0.00548076
67.35 0.00697441
67.36 0.00794457
67.37 0.00832772
67.38 0.0080443
67.39 0.00713092
67.4 0.00563963
67.41 0.00364075
67.42 0.00123256
67.43 -0.00146341
67.44 -0.00430836
67.45 -0.00715316
67.46 -0.00984016
67.47 -0.0121913
67.48 -0.0140905
67.49 -0.0154302
67.5 -0.0161307
67.51 -0.0161446
67.52 -0.0154594
67.53 -0.0140992
67.54 -0.0121236
67.55 -0.00960208
67.56 -0.00668526
67.57 -0.00354034
67.58 -0.000329793
67.59 0.00277814
67.6 0.00561793
67.61 0.00803511
67.62 0.00989418
67.63 0.0110832
67.64 0.0114546
67.65 0.0110382
67.66 0.00983981
67.67 0.00790389
67.68 0.00531153
67.69 0.00217659
67.7 -0.00135969
67.71 -0.00513554
67.72 -0.00897123
67.73 -0.0126651
67.74 -0.0160434
67.75 -0.0189498
67.76 -0.0212507
67.77 -0.0228416
67.78 -0.0236519
67.79 -0.0236479
67.8 -0.0228347
67.81 -0.0211984
67.82 -0.018883
67.83 -0.0160136
67.84 -0.0127293
67.85 -0.00918567
67.86 -0.0055469
67.87 -0.00197734
67.88 0.00136643
67.89 0.00432984
67.9 0.00676381
67.91 0.00861015
67.92 0.00981676
67.93 0.0103654
67.94 0.0102716
67.95 0.00958294
67.96 0.00837537
67.97 0.00674852
67.98 0.00480824
67.99 0.00270844
68 0.000587876
68.01 -0.00142865
68.02 -0.00322896
68.03 -0.00471937
68.04 -0.00582946
68.05 -0.00651547
68.06 -0.0067572
68.07 -0.00654175
68.08 -0.00595224
68.09 -0.00505828
68.1 -0.00394784
68.11 -0.00272161
68.12 -0.00148656
68.13 -0.000349343
68.14 0.000590338
68.15 0.00122785
68.16 0.00149191
68.17 0.00135631
68.18 0.000808398
68.19 -0.000137095
68.2 -0.00143864
68.21 -0.00303004
68.22 -0.00482402
68.23 -0.00671703
68.24 -0.00858304
68.25 -0.0102962
68.26 -0.0117436
68.27 -0.0128242
68.28 -0.013454
68.29 -0.013572
68.3 -0.0131442
68.31 -0.0121657
68.32 -0.0106457
68.33 -0.0086388
68.34 -0.00626497
68.35 -0.00363582
68.36 -0.000880038
68.37 0.00186318
68.38 0.0044512
68.39 0.00674539
68.4 0.00861848
68.41 0.00991532
68.42 0.0105766
68.43 0.0105653
68.44 0.00986681
68.45 0.00850132
68.46 0.00652311
68.47 0.00401854
68.48 0.00110221
68.49 -0.0020904
68.5 -0.00539401
68.51 -0.00862573
68.52 -0.0116226
68.53 -0.0142307
68.54 -0.0163129
68.55 -0.0177555
68.56 -0.0184744
68.57 -0.018419
68.58 -0.0175301
68.59 -0.0158583
68.6 -0.0135002
68.61 -0.0105577
68.62 -0.00716122
68.63 -0.0034635
68.64 0.000367264
68.65 0.00415543
68.66 0.00772441
68.67 0.0108607
68.68 0.0134425
68.69 0.0153513
68.7 0.0164995
68.71 0.0168344
68.72 0.0163402
68.73 0.0150395
68.74 0.0129909
68.75 0.0102643
68.76 0.00699653
68.77 0.00337027
68.78 -0.000449656
68.79 -0.00429133
68.8 -0.00798362
68.81 -0.0113639
68.82 -0.0142852
68.83 -0.016623
68.84 -0.018218
68.85 -0.0190532
68.86 -0.0191132
68.87 -0.0184097
68.88 -0.0169878
68.89 -0.0149236
68.9 -0.0123198
68.91 -0.00930071
68.92 -0.00600268
68.93 -0.00258647
68.94 0.000781693
68.95 0.00395945
68.96 0.00681769
68.97 0.00924599
68.98 0.0111571
68.99 0.0124902
69 0.0132128
69.01 0.0132816
69.02 0.0127528
69.03 0.0116991
69.04 0.0101981
69.05 0.00834446
69.06 0.00624469
69.07 0.00401149
69.08 0.00175806
69.09 -0.00040498
69.1 -0.0023581
69.11 -0.00403067
69.12 -0.00536249
69.13 -0.00631462
69.14 -0.00687046
69.15 -0.0070357
69.16 -0.00683705
69.17 -0.00632007
69.18 -0.00553653
69.19 -0.00457188
69.2 -0.00351778
69.21 -0.00245653
69.22 -0.001467
69.23 -0.000620196
69.24 2.46516e-05
69.25 0.000423316
69.26 0.000548957
69.27 0.000368885
69.28 -7.68081e-05
69.29 -0.000753427
69.3 -0.00161093
69.31 -0.00258589
69.32 -0.00360499
69.33 -0.00458915
69.34 -0.0054579
69.35 -0.00612423
69.36 -0.00650569
69.37 -0.00655947
69.38 -0.00624697
69.39 -0.00554812
69.4 -0.00446304
69.41 -0.00301262
69.42 -0.00123817
69.43 0.000800106
69.44 0.00303268
69.45 0.00534861
69.46 0.0076441
69.47 0.00981538
69.48 0.0117603
69.49 0.0133832
69.5 0.0145998
69.51 0.0153409
69.52 0.0155454
69.53 0.0151557
69.54 0.0142126
69.55 0.0127421
69.56 0.010794
69.57 0.00843971
69.58 0.00576982
69.59 0.0028899
69.6 -8.38146e-05
69.61 -0.00302036
69.62 -0.00578548
69.63 -0.00826669
69.64 -0.0103623
69.65 -0.0119874
69.66 -0.013078
69.67 -0.0135941
69.68 -0.0135214
69.69 -0.0128697
69.7 -0.0116386
69.71 -0.00994783
69.72 -0.0078868
69.73 -0.00556129
69.74 -0.00308871
69.75 -0.000592474
69.76 0.0018038
69.77 0.00398224
69.78 0.00581767
69.79 0.00720942
69.8 0.0081112
69.81 0.0084851
69.82 0.00832028
69.83 0.0076336
69.84 0.00646885
69.85 0.00489468
69.86 0.00300131
69.87 0.000888407
69.88 -0.00129761
69.89 -0.00342954
69.9 -0.00538453
69.91 -0.00704828
69.92 -0.00832098
69.93 -0.00912259
69.94 -0.00939722
69.95 -0.00910018
69.96 -0.00821559
69.97 -0.00681721
69.98 -0.00497014
69.99 -0.00276446
70 -0.000310889
70.01 0.00226457
70.02 0.00482691
70.03 0.00723892
70.04 0.00934041
70.05 0.011013
70.06 0.0121676
70.07 0.0127331
70.08 0.0126676
70.09 0.0119616
70.1 0.0106388
70.11 0.00875607
70.12 0.00639599
70.13 0.00366291
70.14 0.000733972
70.15 -0.00223753
70.16 -0.00509259
70.17 -0.00767444
70.18 -0.00983652
70.19 -0.0114501
70.2 -0.0124112
70.21 -0.0126056
70.22 -0.0120034
70.23 -0.0106431
70.24 -0.00857086
70.25 -0.00586949
70.26 -0.0026549
70.27 0.000929011
70.28 0.00471701
70.29 0.00853029
70.3 0.0121537
70.31 0.0154096
70.32 0.0181362
70.33 0.0201951
70.34 0.0214782
70.35 0.0219137
70.36 0.0214696
70.37 0.020156
70.38 0.0179976
70.39 0.0150874
70.4 0.0116061
70.41 0.00771535
70.42 0.00359678
70.43 -0.000557467
70.44 -0.00455391
70.45 -0.00820736
70.46 -0.0113501
70.47 -0.0137815
70.48 -0.0154269
70.49 -0.0162374
70.5 -0.0161948
70.51 -0.0153239
70.52 -0.0136913
70.53 -0.0114015
70.54 -0.00859179
70.55 -0.00542092
70.56 -0.00207962
70.57 0.00122135
70.58 0.00430055
70.59 0.00699123
70.6 0.00914999
70.61 0.0106643
70.62 0.0114583
70.63 0.0114969
70.64 0.0107443
70.65 0.00928209
70.66 0.0072316
70.67 0.00472199
70.68 0.00190772
70.69 -0.00103995
70.7 -0.00394239
70.71 -0.00662349
70.72 -0.008916
70.73 -0.0106229
70.74 -0.0116757
70.75 -0.0120067
70.76 -0.011589
70.77 -0.0104388
70.78 -0.00861385
70.79 -0.00621098
70.8 -0.00336069
70.81 -0.000215306
70.82 0.00302657
70.83 0.00616806
70.84 0.00903009
70.85 0.0114483
70.86 0.0132823
70.87 0.0144238
70.88 0.0148029
70.89 0.0143921
70.9 0.0131484
70.91 0.011204
70.92 0.00867775
70.93 0.00571487
70.94 0.0024869
70.95 -0.000818032
70.96 -0.00400551
70.97 -0.00688575
70.98 -0.00926522
70.99 -0.0109604
71 -0.0118991
71.01 -0.0120195
71.02 -0.0113071
71.03 -0.00979582
71.04 -0.00756741
71.05 -0.00474739
71.06 -0.00149896
71.07 0.00198673
71.08 0.00546427
71.09 0.00870985
71.1 0.0115129
71.11 0.0136828
71.12 0.0150597
71.13 0.0155245
71.14 0.015006
71.15 0.0134728
71.16 0.0109099
71.17 0.00750356
71.18 0.00341
71.19 -0.00117137
71.2 -0.00600768
71.21 -0.0108441
71.22 -0.0154167
71.23 -0.0194662
71.24 -0.0226984
71.25 -0.0248944
71.26 -0.0259319
71.27 -0.0257113
71.28 -0.0241942
71.29 -0.0214068
71.3 -0.0174394
71.31 -0.0124438
71.32 -0.00662656
71.33 -0.000213253
71.34 0.00643129
71.35 0.0129987
71.36 0.0191803
71.37 0.0246811
71.38 0.0292354
71.39 0.0326191
71.4 0.034662
71.41 0.0351987
71.42 0.0341675
71.43 0.0316981
71.44 0.027907
71.45 0.0229742
71.46 0.0171342
71.47 0.0106649
71.48 0.00387449
71.49 -0.00291402
71.5 -0.00932853
71.51 -0.0150582
71.52 -0.0198441
71.53 -0.023469
71.54 -0.0257736
71.55 -0.0266637
71.56 -0.0261146
71.57 -0.0241714
71.58 -0.0209215
71.59 -0.016509
71.6 -0.01126
71.61 -0.00544651
71.62 0.000636777
71.63 0.00668754
71.64 0.0124108
71.65 0.0175335
71.66 0.0218178
71.67 0.0249994
71.68 0.0269669
71.69 0.0276946
71.7 0.027187
71.71 0.0255107
71.72 0.0227902
71.73 0.0191999
71.74 0.0149543
71.75 0.010295
71.76 0.00549284
71.77 0.000837048
71.78 -0.00343169
71.79 -0.00710081
71.8 -0.00999637
71.81 -0.0119913
71.82 -0.013011
71.83 -0.013036
71.84 -0.0120615
71.85 -0.0101914
71.86 -0.00761388
71.87 -0.00450662
71.88 -0.00107161
71.89 0.00247641
71.9 0.005922
71.91 0.00906089
71.92 0.011711
71.93 0.0136574
71.94 0.014837
71.95 0.0152007
71.96 0.0147421
71.97 0.0135018
71.98 0.0115643
71.99 0.00905224
72 0.00611906
72.01 0.00293784
72.02 -0.000285911
72.03 -0.00335407
72.04 -0.00609561
72.05 -0.00836203
72.06 -0.0100353
72.07 -0.0110343
72.08 -0.0113181
72.09 -0.0108886
72.1 -0.00974718
72.11 -0.00802014
72.12 -0.0058441
72.13 -0.00336331
72.14 -0.000736674
72.15 0.0018717
72.16 0.00430222
72.17 0.00640907
72.18 0.00806004
72.19 0.00911997
72.2 0.00957431
72.21 0.00940968
72.22 0.00865084
72.23 0.00735877
72.24 0.00562654
72.25 0.00357343
72.26 0.00133753
72.27 -0.000926024
72.28 -0.00304985
72.29 -0.00489473
72.3 -0.00634049
72.31 -0.00729249
72.32 -0.00768716
72.33 -0.00749572
72.34 -0.00672582
72.35 -0.00542103
72.36 -0.00362499
72.37 -0.00149873
72.38 0.000826051
72.39 0.00320528
72.4 0.00549115
72.41 0.00754103
72.42 0.00922597
72.43 0.0104385
72.44 0.0110756
72.45 0.0110804
72.46 0.0104822
72.47 0.00931623
72.48 0.00765232
72.49 0.00559123
72.5 0.00325876
72.51 0.000798549
72.52 -0.00163626
72.53 -0.00386626
72.54 -0.00574663
72.55 -0.00715824
72.56 -0.0080057
72.57 -0.00822623
72.58 -0.00779368
72.59 -0.00672042
72.6 -0.00505711
72.61 -0.00288124
72.62 -0.000308574
72.63 0.00247902
72.64 0.00531966
72.65 0.00804594
72.66 0.0104945
72.67 0.0125153
72.68 0.0139803
72.69 0.0147913
72.7 0.0148386
72.71 0.0141258
72.72 0.0127038
72.73 0.0106416
72.74 0.00804542
72.75 0.00505314
72.76 0.00182728
72.77 -0.00145365
72.78 -0.00460198
72.79 -0.00739516
72.8 -0.0096838
72.81 -0.0113297
72.82 -0.0122271
72.83 -0.0123087
72.84 -0.0115494
72.85 -0.00996797
72.86 -0.00762599
72.87 -0.00460059
72.88 -0.00105027
72.89 0.00282554
72.9 0.00684103
72.91 0.0108035
72.92 0.0145234
72.93 0.0178242
72.94 0.0205513
72.95 0.0225802
72.96 0.0237496
72.97 0.0240772
72.98 0.0235737
72.99 0.0222854
73 0.0202972
73.01 0.0177276
73.02 0.0147217
73.03 0.0114429
73.04 0.00806683
73.05 0.0047875
73.06 0.00176902
73.07 -0.000849537
73.08 -0.00295647
73.09 -0.00447289
73.1 -0.00535625
73.11 -0.00560178
73.12 -0.00524178
73.13 -0.00431138
73.14 -0.00294655
73.15 -0.00128308
73.16 0.000541941
73.17 0.00238643
73.18 0.0041119
73.19 0.00559172
73.2 0.0067186
73.21 0.00740273
73.22 0.00756094
73.23 0.0072178
73.24 0.00639687
73.25 0.0051537
73.26 0.00357218
73.27 0.00175926
73.28 -0.000161718
73.29 -0.00205859
73.3 -0.00378244
73.31 -0.00519775
73.32 -0.00620599
73.33 -0.0067256
73.34 -0.00670376
73.35 -0.00611965
73.36 -0.00498604
73.37 -0.00334874
73.38 -0.00128395
73.39 0.00112358
73.4 0.00370785
73.41 0.00632998
73.42 0.00884761
73.43 0.0111231
73.44 0.0130314
73.45 0.0144676
73.46 0.0153525
73.47 0.0156134
73.48 0.0152299
73.49 0.0142633
73.5 0.012775
73.51 0.0108562
73.52 0.00862248
73.53 0.00620726
73.54 0.00375434
73.55 0.00140962
73.56 -0.00065729
73.57 -0.0023289
73.58 -0.00351164
73.59 -0.00413703
73.6 -0.00416945
73.61 -0.00360821
73.62 -0.00248768
73.63 -0.000875371
73.64 0.00113839
73.65 0.00342951
73.66 0.00583098
73.67 0.00819538
73.68 0.0103769
73.69 0.0122397
73.7 0.0136657
73.71 0.0145615
73.72 0.014864
73.73 0.0145044
73.74 0.0135165
73.75 0.0119697
73.76 0.00994717
73.77 0.00755999
73.78 0.00494104
73.79 0.00223762
73.8 -0.000396741
73.81 -0.00280753
73.82 -0.004815
73.83 -0.00632453
73.84 -0.00724814
73.85 -0.00753031
73.86 -0.0071512
73.87 -0.00612785
73.88 -0.00451335
73.89 -0.00239408
73.9 0.000126983
73.91 0.00289172
73.92 0.00572883
73.93 0.00848011
73.94 0.0109919
73.95 0.0131236
73.96 0.0147551
73.97 0.0157936
73.98 0.0161785
73.99 0.0158258
74 0.0148095
74.01 0.0131895
74.02 0.0110534
74.03 0.00851578
74.04 0.00571175
74.05 0.00278939
74.06 -9.84161e-05
74.07 -0.00279154
74.08 -0.00512954
74.09 -0.00701254
74.1 -0.00835508
74.11 -0.00910288
74.12 -0.00923536
74.13 -0.00876614
74.14 -0.00774168
74.15 -0.00623806
74.16 -0.00433749
74.17 -0.00219234
74.18 5.76608e-05
74.19 0.00227961
74.2 0.00434715
74.21 0.00614784
74.22 0.00758951
74.23 0.00860544
74.24 0.00914965
74.25 0.00918994
74.26 0.00879322
74.27 0.00801821
74.28 0.00694734
74.29 0.00568113
74.3 0.00433153
74.31 0.00301451
74.32 0.00184249
74.33 0.000935828
74.34 0.000379853
74.35 0.000218378
74.36 0.000476192
74.37 0.00114732
74.38 0.00219485
74.39 0.00355267
74.4 0.00512904
74.41 0.00681173
74.42 0.00846025
74.43 0.00993427
74.44 0.0111057
74.45 0.011859
74.46 0.0120984
74.47 0.011755
74.48 0.0107918
74.49 0.00920702
74.5 0.00701485
74.51 0.00429444
74.52 0.00118949
74.53 -0.0021596
74.54 -0.00559173
74.55 -0.00893332
74.56 -0.0120073
74.57 -0.0146428
74.58 -0.0166842
74.59 -0.0179332
74.6 -0.0183363
74.61 -0.0178522
74.62 -0.0164725
74.63 -0.0142334
74.64 -0.0112143
74.65 -0.00753499
74.66 -0.0033501
74.67 0.00116097
74.68 0.00577873
74.69 0.0102728
74.7 0.0144378
74.71 0.0180832
74.72 0.0210431
74.73 0.0231848
74.74 0.0244154
74.75 0.0246869
74.76 0.0239386
74.77 0.0222636
74.78 0.019791
74.79 0.0166604
74.8 0.0130428
74.81 0.009131
74.82 0.00513028
74.83 0.00124735
74.84 -0.00231506
74.85 -0.00532709
74.86 -0.00767656
74.87 -0.00925995
74.88 -0.0100166
74.89 -0.00993166
74.9 -0.00903589
74.91 -0.00740401
74.92 -0.00514997
74.93 -0.00240578
74.94 0.00063115
74.95 0.00375263
74.96 0.00676922
74.97 0.00950024
74.98 0.0117837
74.99 0.013485
75 0.0145045
75.01 0.0147827
75.02 0.0142387
75.03 0.012974
75.04 0.0110729
75.05 0.00865341
75.06 0.00586373
75.07 0.00287465
75.08 -0.00013013
75.09 -0.00296413
75.1 -0.00543072
75.11 -0.00733918
75.12 -0.00858526
75.13 -0.00907814
75.14 -0.00876827
75.15 -0.00765034
75.16 -0.00576395
75.17 -0.00319191
75.18 -5.61861e-05
75.19 0.0035047
75.2 0.00726845
75.21 0.011029
75.22 0.0145859
75.23 0.017746
75.24 0.0203342
75.25 0.0222022
75.26 0.0232362
75.27 0.0233462
75.28 0.0224527
75.29 0.0206548
75.3 0.0180274
75.31 0.0146867
75.32 0.0107849
75.33 0.00650226
75.34 0.0020385
75.35 -0.00239719
75.36 -0.00657094
75.37 -0.0102704
75.38 -0.0133354
75.39 -0.0156276
75.4 -0.0170468
75.41 -0.017535
75.42 -0.0170798
75.43 -0.0157138
75.44 -0.0135108
75.45 -0.010537
75.46 -0.00702276
75.47 -0.00314702
75.48 0.00089688
75.49 0.00491051
75.5 0.0087
75.51 0.0120853
75.52 0.0149084
75.53 0.0170074
75.54 0.0182745
75.55 0.0187015
75.56 0.0182845
75.57 0.0170596
75.58 0.0151004
75.59 0.0125139
75.6 0.00943422
75.61 0.00601603
75.62 0.00242658
75.63 -0.00113579
75.64 -0.00450427
75.65 -0.00752776
75.66 -0.0100756
75.67 -0.0120431
75.68 -0.0133556
75.69 -0.0139709
75.7 -0.0138623
75.71 -0.0130325
75.72 -0.0115904
75.73 -0.00962276
75.74 -0.0072369
75.75 -0.0045546
75.76 -0.00170599
75.77 0.00117697
75.78 0.0039667
75.79 0.00652488
75.8 0.00874927
75.81 0.0105685
75.82 0.011928
75.83 0.012797
75.84 0.0131693
75.85 0.0130622
75.86 0.0125138
75.87 0.0115772
75.88 0.010309
75.89 0.0088233
75.9 0.00720727
75.91 0.0055481
75.92 0.0039287
75.93 0.00242404
75.94 0.001098
75.95 9.78458e-07
75.96 -0.000817216
75.97 -0.00133852
75.98 -0.00157432
75.99 -0.00153864
76 -0.00125812
76.01 -0.000769798
76.02 -0.000118488
76.03 0.000646062
76.04 0.00147204
76.05 0.00230497
76.06 0.00309321
76.07 0.00379624
76.08 0.00438135
76.09 0.00482473
76.1 0.00511214
76.11 0.00523899
76.12 0.00521001
76.13 0.00503419
76.14 0.00473238
76.15 0.00434051
76.16 0.00388994
76.17 0.003414
76.18 0.00294626
76.19 0.00251884
76.2 0.0021609
76.21 0.00189731
76.22 0.00175703
76.23 0.00174737
76.24 0.00187093
76.25 0.00212563
76.26 0.00250253
76.27 0.00298625
76.28 0.00355548
76.29 0.0041839
76.3 0.00484093
76.31 0.00548912
76.32 0.00609136
76.33 0.00661234
76.34 0.00701804
76.35 0.00727713
76.36 0.00736232
76.37 0.00725152
76.38 0.00692906
76.39 0.00637367
76.4 0.00559164
76.41 0.00460156
76.42 0.00342321
76.43 0.00208526
76.44 0.000624818
76.45 -0.000913427
76.46 -0.00247837
76.47 -0.00401368
76.48 -0.00544691
76.49 -0.00672195
76.5 -0.00778134
76.51 -0.00857234
76.52 -0.00904935
76.53 -0.00917634
76.54 -0.00892901
76.55 -0.0082966
76.56 -0.00726758
76.57 -0.00586364
76.58 -0.00414365
76.59 -0.00216212
76.6 1.2789e-05
76.61 0.00230145
76.62 0.00461556
76.63 0.00686147
76.64 0.008944
76.65 0.010742
76.66 0.012182
76.67 0.0131952
76.68 0.0137258
76.69 0.0137365
76.7 0.0132116
76.71 0.012158
76.72 0.010606
76.73 0.00859897
76.74 0.00620807
76.75 0.00355991
76.76 0.000766032
76.77 -0.00205264
76.78 -0.004771
76.79 -0.00726539
76.8 -0.00941926
76.81 -0.0111287
76.82 -0.0122675
76.83 -0.0127899
76.84 -0.012679
76.85 -0.0119311
76.86 -0.010572
76.87 -0.00865509
76.88 -0.00626027
76.89 -0.00348992
76.9 -0.000463151
76.91 0.00268109
76.92 0.00578374
76.93 0.00870728
76.94 0.0113231
76.95 0.0135177
76.96 0.0151984
76.97 0.0162982
76.98 0.0167786
76.99 0.0166011
77 0.0158026
77.01 0.0144708
77.02 0.0126932
77.03 0.0105794
77.04 0.0082552
77.05 0.00585632
77.06 0.0035212
77.07 0.00138369
77.08 -0.000395398
77.09 -0.0017359
77.1 -0.00256581
77.11 -0.00284138
77.12 -0.00255079
77.13 -0.0017149
77.14 -0.000386425
77.15 0.00135269
77.16 0.00340156
77.17 0.00562074
77.18 0.00785252
77.19 0.00995291
77.2 0.0117828
77.21 0.0132155
77.22 0.0141441
77.23 0.0144876
77.24 0.0141959
77.25 0.0132053
77.26 0.0115802
77.27 0.00939656
77.28 0.00675025
77.29 0.00376512
77.3 0.000586879
77.31 -0.0026241
77.32 -0.00570094
77.33 -0.0084693
77.34 -0.0107362
77.35 -0.0123965
77.36 -0.0133492
77.37 -0.0135271
77.38 -0.012901
77.39 -0.0114817
77.4 -0.00932025
77.41 -0.00650601
77.42 -0.00314052
77.43 0.000589275
77.44 0.00448771
77.45 0.008366
77.46 0.0120336
77.47 0.0153077
77.48 0.018022
77.49 0.0200351
77.5 0.021233
77.51 0.0214662
77.52 0.0207882
77.53 0.0192212
77.54 0.0168296
77.55 0.0137166
77.56 0.0100193
77.57 0.00590248
77.58 0.00155023
77.59 -0.00283492
77.6 -0.00703125
77.61 -0.0108525
77.62 -0.0141317
77.63 -0.0167282
77.64 -0.0185339
77.65 -0.0194775
77.66 -0.0195275
77.67 -0.0186927
77.68 -0.0169583
77.69 -0.0144829
77.7 -0.0113975
77.71 -0.00784766
77.72 -0.00399511
77.73 -9.54079e-06
77.74 0.00393936
77.75 0.00768975
77.76 0.011081
77.77 0.0139589
77.78 0.016255
77.79 0.0179071
77.8 0.0188844
77.81 0.0191874
77.82 0.018846
77.83 0.0179165
77.84 0.0164766
77.85 0.0146
77.86 0.0124214
77.87 0.0100617
77.88 0.00762831
77.89 0.00522112
77.9 0.00292781
77.91 0.000820594
77.92 -0.00104599
77.93 -0.00263219
77.94 -0.00390067
77.95 -0.00487777
77.96 -0.00558097
77.97 -0.00603849
77.98 -0.00628564
77.99 -0.00636099
78 -0.00630261
78.01 -0.00614476
78.02 -0.00591238
78.03 -0.00562638
78.04 -0.00529679
78.05 -0.00492121
78.06 -0.00448885
78.07 -0.00398249
78.08 -0.00338106
78.09 -0.00266282
78.1 -0.00180865
78.11 -0.00079122
78.12 0.000378669
78.13 0.00169029
78.14 0.00311983
78.15 0.00462956
78.16 0.00616843
78.17 0.00767371
78.18 0.00907371
78.19 0.0102815
78.2 0.0112045
78.21 0.0117813
78.22 0.0119493
78.23 0.0116608
78.24 0.0108874
78.25 0.0096227
78.26 0.00788545
78.27 0.00572003
78.28 0.00317604
78.29 0.000380087
78.3 -0.00254421
78.31 -0.0054656
78.32 -0.008245
78.33 -0.0107423
78.34 -0.0128238
78.35 -0.0143691
78.36 -0.0152631
78.37 -0.0153918
78.38 -0.0147691
78.39 -0.0133979
78.4 -0.0113177
78.41 -0.00860509
78.42 -0.00537038
78.43 -0.00175372
78.44 0.0020811
78.45 0.00594459
78.46 0.00962689
78.47 0.0129437
78.48 0.0157247
78.49 0.0178223
78.5 0.019119
78.51 0.0195345
78.52 0.0190302
78.53 0.0176071
78.54 0.0152548
78.55 0.0121588
78.56 0.00846199
78.57 0.00433874
78.58 -1.33911e-05
78.59 -0.00438325
78.6 -0.00855657
78.61 -0.0123267
78.62 -0.0154706
78.63 -0.0178091
78.64 -0.0192581
78.65 -0.0197478
78.66 -0.0192564
78.67 -0.017812
78.68 -0.015491
78.69 -0.0124147
78.7 -0.00874344
78.71 -0.00465228
78.72 -0.000404581
78.73 0.00377314
78.74 0.00766242
78.75 0.0110605
78.76 0.0137908
78.77 0.0157125
78.78 0.0167275
78.79 0.0167578
78.8 0.015778
78.81 0.0139149
78.82 0.0112806
78.83 0.00802874
78.84 0.00434669
78.85 0.000445439
78.86 -0.00345131
78.87 -0.00711903
78.88 -0.0103001
78.89 -0.0128083
78.9 -0.0145073
78.91 -0.0152923
78.92 -0.0151084
78.93 -0.0139529
78.94 -0.0118764
78.95 -0.0089803
78.96 -0.00540516
78.97 -0.00132734
78.98 0.00298131
78.99 0.00728616
79 0.0113501
79.01 0.0149461
79.02 0.0178686
79.03 0.0199452
79.04 0.0210453
79.05 0.0210289
79.06 0.0198865
79.07 0.0177027
79.08 0.0145723
79.09 0.0106394
79.1 0.00609023
79.11 0.00114357
79.12 -0.00395983
79.13 -0.00896958
79.14 -0.0135848
79.15 -0.0175912
79.16 -0.0207933
79.17 -0.0230358
79.18 -0.0242109
79.19 -0.0242645
79.2 -0.0231982
79.21 -0.0210695
79.22 -0.0179586
79.23 -0.0140326
79.24 -0.00954783
79.25 -0.00473392
79.26 0.000165584
79.27 0.00490544
79.28 0.00925114
79.29 0.0129907
79.3 0.0159452
79.31 0.017899
79.32 0.0188199
79.33 0.0187009
79.34 0.0175731
79.35 0.0155196
79.36 0.0126699
79.37 0.0091936
79.38 0.00529064
79.39 0.00118183
79.4 -0.00287866
79.41 -0.00665669
79.42 -0.00994891
79.43 -0.0125807
79.44 -0.014415
79.45 -0.015359
79.46 -0.0153685
79.47 -0.01445
79.48 -0.0126125
79.49 -0.0100025
79.5 -0.00680005
79.51 -0.00318798
79.52 0.000630256
79.53 0.00444117
79.54 0.00803244
79.55 0.011204
79.56 0.0137728
79.57 0.0155227
79.58 0.0164118
79.59 0.0163889
79.6 0.0154506
79.61 0.013641
79.62 0.011049
79.63 0.00780372
79.64 0.00406766
79.65 2.37418e-05
79.66 -0.00409898
79.67 -0.00808072
79.68 -0.0117236
79.69 -0.0148481
79.7 -0.0173017
79.71 -0.0189663
79.72 -0.0197637
79.73 -0.0196591
79.74 -0.0185899
79.75 -0.0166898
79.76 -0.0140683
79.77 -0.0108607
79.78 -0.00722823
79.79 -0.00334969
79.8 0.000587608
79.81 0.00439732
79.82 0.00788866
79.83 0.0108736
79.84 0.0132489
79.85 0.0149234
79.86 0.0158429
79.87 0.0159921
79.88 0.0153935
79.89 0.014106
79.9 0.0122208
79.91 0.00983176
79.92 0.00711513
79.93 0.00423381
79.94 0.00134167
79.95 -0.00141311
79.96 -0.00389539
79.97 -0.0059896
79.98 -0.00760504
79.99 -0.00867107
80 -0.00912061
80.01 -0.00900559
80.02 -0.00836455
80.03 -0.00726307
80.04 -0.00578938
80.05 -0.00404902
80.06 -0.0021586
80.07 -0.000239217
80.08 0.00157894
80.09 0.00317543
80.1 0.00446269
80.11 0.00536929
80.12 0.00584748
80.13 0.00587514
80.14 0.00545646
80.15 0.00462113
80.16 0.00342227
80.17 0.00191421
80.18 0.000222276
80.19 -0.00155207
80.2 -0.00330369
80.21 -0.00492928
80.22 -0.00633281
80.23 -0.00743044
80.24 -0.00815469
80.25 -0.00844021
80.26 -0.0082536
80.27 -0.00762102
80.28 -0.00656752
80.29 -0.00513913
80.3 -0.00340022
80.31 -0.00143006
80.32 0.000681202
80.33 0.00283714
80.34 0.00492792
80.35 0.00685413
80.36 0.00853194
80.37 0.00988888
80.38 0.0108678
80.39 0.0114293
80.4 0.0115525
80.41 0.0112359
80.42 0.0104877
80.43 0.00932927
80.44 0.00784289
80.45 0.00609241
80.46 0.00414975
80.47 0.00209137
80.48 -5.36782e-06
80.49 -0.00206553
80.5 -0.00401981
80.51 -0.0057934
80.52 -0.00733717
80.53 -0.00862112
80.54 -0.00962275
80.55 -0.0103326
80.56 -0.0107535
80.57 -0.0108996
80.58 -0.0107949
80.59 -0.0104694
80.6 -0.00994998
80.61 -0.00929607
80.62 -0.00854894
80.63 -0.00774834
80.64 -0.00693068
80.65 -0.00612759
80.66 -0.00536489
80.67 -0.00466193
80.68 -0.00403511
80.69 -0.00349045
80.7 -0.00302327
80.71 -0.00262739
80.72 -0.00229278
80.73 -0.00200672
80.74 -0.00175508
80.75 -0.00152351
80.76 -0.00129859
80.77 -0.00106754
80.78 -0.000821576
80.79 -0.000555809
80.8 -0.00026875
80.81 3.76666e-05
80.82 0.00035835
80.83 0.000685511
80.84 0.00100928
80.85 0.00131754
80.86 0.00159629
80.87 0.00183513
80.88 0.00202379
80.89 0.00215384
80.9 0.00221916
80.91 0.00221635
80.92 0.00214494
80.93 0.00200747
80.94 0.0018056
80.95 0.00155149
80.96 0.00125727
80.97 0.000935312
80.98 0.000599009
80.99 0.000262187
81 -6.15351e-05
81.01 -0.000359339
81.02 -0.000618996
81.03 -0.000827235
81.04 -0.000980391
81.05 -0.00107439
81.06 -0.00110798
81.07 -0.00108282
81.08 -0.00100339
81.09 -0.000876899
81.1 -0.000713026
81.11 -0.000522931
81.12 -0.000322385
81.13 -0.000127301
81.14 4.67811e-05
81.15 0.000184333
81.16 0.000270438
81.17 0.000291386
81.18 0.000235259
81.19 9.2419e-05
81.2 -0.000152871
81.21 -0.000494931
81.22 -0.000932637
81.23 -0.00146095
81.24 -0.00207085
81.25 -0.00274936
81.26 -0.00347982
81.27 -0.00424217
81.28 -0.00501286
81.29 -0.00576331
81.3 -0.00646659
81.31 -0.00709592
81.32 -0.00762529
81.33 -0.00803053
81.34 -0.00829035
81.35 -0.00838732
81.36 -0.00830874
81.37 -0.00803278
81.38 -0.0075711
81.39 -0.00693332
81.4 -0.00613286
81.41 -0.00518942
81.42 -0.00412845
81.43 -0.00298046
81.44 -0.00177991
81.45 -0.000564721
81.46 0.000621074
81.47 0.00173852
81.48 0.0027514
81.49 0.00362701
81.5 0.00433755
81.51 0.00486131
81.52 0.00518356
81.53 0.00529726
81.54 0.00519066
81.55 0.00488175
81.56 0.00439499
81.57 0.00375508
81.58 0.00299218
81.59 0.00214048
81.6 0.00123667
81.61 0.000318252
81.62 -0.000577616
81.63 -0.00140956
81.64 -0.00215115
81.65 -0.00277928
81.66 -0.00327742
81.67 -0.00363624
81.68 -0.0038538
81.69 -0.00393536
81.7 -0.0038929
81.71 -0.00374014
81.72 -0.00350301
81.73 -0.0032123
81.74 -0.0028952
81.75 -0.00257845
81.76 -0.00228679
81.77 -0.0020415
81.78 -0.00185924
81.79 -0.0017511
81.8 -0.00172883
81.81 -0.00178347
81.82 -0.00190555
81.83 -0.00208079
81.84 -0.00229054
81.85 -0.00251302
81.86 -0.00272481
81.87 -0.00290239
81.88 -0.00302126
81.89 -0.00305855
81.9 -0.00300454
81.91 -0.00285159
81.92 -0.00259842
81.93 -0.00225042
81.94 -0.00181953
81.95 -0.00132373
81.96 -0.000786187
81.97 -0.000235096
81.98 0.000296132
81.99 0.000777079
82 0.00117905
82.01 0.00147649
82.02 0.00164859
82.03 0.00168053
82.04 0.00156454
82.05 0.00129801
82.06 0.000881822
82.07 0.000344219
82.08 -0.000291426
82.09 -0.000996441
82.1 -0.0017384
82.11 -0.00248291
82.12 -0.00319555
82.13 -0.0038438
82.14 -0.0043923
82.15 -0.00481784
82.16 -0.00510958
82.17 -0.00526116
82.18 -0.00527473
82.19 -0.00516091
82.2 -0.0049382
82.21 -0.00463202
82.22 -0.00427314
82.23 -0.00389784
82.24 -0.00354655
82.25 -0.00325413
82.26 -0.00305208
82.27 -0.00296652
82.28 -0.00301649
82.29 -0.00321259
82.3 -0.00355607
82.31 -0.00404344
82.32 -0.0046548
82.33 -0.0053542
82.34 -0.00610596
82.35 -0.00686923
82.36 -0.00760016
82.37 -0.00825433
82.38 -0.00878924
82.39 -0.00916686
82.4 -0.00933877
82.41 -0.00929452
82.42 -0.00902706
82.43 -0.00853816
82.44 -0.00784125
82.45 -0.00696106
82.46 -0.00593261
82.47 -0.00479961
82.48 -0.00361248
82.49 -0.00243201
82.5 -0.00131701
82.51 -0.00032077
82.52 0.000508589
82.53 0.00113067
82.54 0.00151501
82.55 0.00164285
82.56 0.00150821
82.57 0.0011032
82.58 0.000461395
82.59 -0.000374482
82.6 -0.0013591
82.61 -0.0024393
82.62 -0.00355677
82.63 -0.00465102
82.64 -0.00566247
82.65 -0.0065336
82.66 -0.00719778
82.67 -0.00763078
82.68 -0.00780788
82.69 -0.00771761
82.7 -0.00736233
82.71 -0.00675815
82.72 -0.00593412
82.73 -0.00493075
82.74 -0.00379451
82.75 -0.00259059
82.76 -0.00138571
82.77 -0.000241144
82.78 0.000784878
82.79 0.00164001
82.8 0.0022804
82.81 0.00267276
82.82 0.00279599
82.83 0.00261791
82.84 0.00216964
82.85 0.0014739
82.86 0.000563347
82.87 -0.00051971
82.88 -0.00172552
82.89 -0.00299945
82.9 -0.0042847
82.91 -0.0055217
82.92 -0.00664936
82.93 -0.00762545
82.94 -0.00841278
82.95 -0.00898382
82.96 -0.0093216
82.97 -0.00941998
82.98 -0.00928341
82.99 -0.00892617
83 -0.00835881
83.01 -0.00762519
83.02 -0.00676501
83.03 -0.00581622
83.04 -0.00481712
83.05 -0.00380444
83.06 -0.00281168
83.07 -0.00186772
83.08 -0.000997561
83.09 -0.000224776
83.1 0.000446781
83.11 0.0010132
83.12 0.0014755
83.13 0.00183854
83.14 0.00210978
83.15 0.00229796
83.16 0.0024118
83.17 0.00245523
83.18 0.00243516
83.19 0.00235563
83.2 0.00221506
83.21 0.00200872
83.22 0.00172934
83.23 0.00136788
83.24 0.000914688
83.25 0.00036048
83.26 -0.000311548
83.27 -0.00109436
83.28 -0.0019852
83.29 -0.00297525
83.3 -0.00404899
83.31 -0.00518401
83.32 -0.00635124
83.33 -0.00751564
83.34 -0.00863369
83.35 -0.00965595
83.36 -0.0105408
83.37 -0.0112457
83.38 -0.0117319
83.39 -0.0119669
83.4 -0.0119266
83.41 -0.0115968
83.42 -0.0109746
83.43 -0.0100482
83.44 -0.00886311
83.45 -0.00745961
83.46 -0.00588505
83.47 -0.00419555
83.48 -0.00245371
83.49 -0.000725858
83.5 0.000920909
83.51 0.00241631
83.52 0.00368681
83.53 0.00469442
83.54 0.00540194
83.55 0.00578539
83.56 0.00583511
83.57 0.00555621
83.58 0.00496828
83.59 0.00410433
83.6 0.00299748
83.61 0.00171741
83.62 0.000332179
83.63 -0.00109408
83.64 -0.00249796
83.65 -0.00382002
83.66 -0.0050077
83.67 -0.00601784
83.68 -0.00681611
83.69 -0.00736624
83.7 -0.00768331
83.71 -0.00777727
83.72 -0.00766966
83.73 -0.00739173
83.74 -0.00698206
83.75 -0.00648377
83.76 -0.00594146
83.77 -0.00540013
83.78 -0.00490219
83.79 -0.0044767
83.8 -0.0041432
83.81 -0.00391028
83.82 -0.00377507
83.83 -0.00372351
83.84 -0.00373146
83.85 -0.00376645
83.86 -0.00378544
83.87 -0.00374484
83.88 -0.00360469
83.89 -0.00332972
83.9 -0.0028925
83.91 -0.00227638
83.92 -0.00147765
83.93 -0.000507128
83.94 0.000612749
83.95 0.00183705
83.96 0.00309988
83.97 0.00433311
83.98 0.00546124
83.99 0.00640528
84 0.00708718
84.01 0.0074344
84.02 0.00738451
84.03 0.00685414
84.04 0.00583792
84.05 0.0043417
84.06 0.00238569
84.07 1.39995e-05
84.08 -0.00270615
84.09 -0.00568647
84.1 -0.00882083
84.11 -0.0119876
84.12 -0.0150393
84.13 -0.0178451
84.14 -0.0202804
84.15 -0.0222328
84.16 -0.0236074
84.17 -0.024332
84.18 -0.0243615
84.19 -0.0236806
84.2 -0.0222679
84.21 -0.0201974
84.22 -0.0175785
84.23 -0.0145219
84.24 -0.0111593
84.25 -0.00763756
84.26 -0.00411192
84.27 -0.000738432
84.28 0.00233171
84.29 0.00491376
84.3 0.00692856
84.31 0.0082953
84.32 0.0089654
84.33 0.00892504
84.34 0.0081962
84.35 0.00683571
84.36 0.00493277
84.37 0.00259266
84.38 -2.74957e-05
84.39 -0.00274921
84.4 -0.00540949
84.41 -0.00784805
84.42 -0.00991552
84.43 -0.0114811
84.44 -0.0124394
84.45 -0.0127161
84.46 -0.0122123
84.47 -0.0109833
84.48 -0.00908308
84.49 -0.0065926
84.5 -0.00362499
84.51 -0.000320026
84.52 0.00316259
84.53 0.00665102
84.54 0.00996003
84.55 0.0128878
84.56 0.0152952
84.57 0.0170532
84.58 0.0180629
84.59 0.01826
84.6 0.0176184
84.61 0.0161519
84.62 0.013913
84.63 0.0109538
84.64 0.00744034
84.65 0.00354457
84.66 -0.000562639
84.67 -0.00470135
84.68 -0.00869113
84.69 -0.0123597
84.7 -0.015551
84.71 -0.0181242
84.72 -0.0199195
84.73 -0.0209295
84.74 -0.0211327
84.75 -0.0205457
84.76 -0.019222
84.77 -0.0172488
84.78 -0.0147421
84.79 -0.0118408
84.8 -0.00869537
84.81 -0.00549024
84.82 -0.00239479
84.83 0.000441596
84.84 0.00288728
84.85 0.00483451
84.86 0.00620426
84.87 0.00694959
84.88 0.00705729
84.89 0.0064965
84.9 0.0053827
84.91 0.00380479
84.92 0.0018716
84.93 -0.000292049
84.94 -0.00255216
84.95 -0.00477278
84.96 -0.00682308
84.97 -0.00856996
84.98 -0.00989428
84.99 -0.010742
85 -0.0110687
85.01 -0.0108589
85.02 -0.0101265
85.03 -0.00891367
85.04 -0.00728788
85.05 -0.0053381
85.06 -0.00316225
85.07 -0.000900937
85.08 0.00132145
85.09 0.00338806
85.1 0.00519159
85.11 0.00663964
85.12 0.00765917
85.13 0.00819992
85.14 0.00822631
85.15 0.00771456
85.16 0.00673371
85.17 0.0053379
85.18 0.00360068
85.19 0.00161085
85.2 -0.000532405
85.21 -0.0027248
85.22 -0.00486231
85.23 -0.00683182
85.24 -0.00854095
85.25 -0.00992595
85.26 -0.0109358
85.27 -0.0115402
85.28 -0.0117298
85.29 -0.0115165
85.3 -0.0109321
85.31 -0.0100242
85.32 -0.00884139
85.33 -0.00748721
85.34 -0.00604223
85.35 -0.00458766
85.36 -0.00320117
85.37 -0.00195297
85.38 -0.000902492
85.39 -9.57162e-05
85.4 0.000423874
85.41 0.000640425
85.42 0.000573564
85.43 0.000244032
85.44 -0.000314157
85.45 -0.00105617
85.46 -0.00192927
85.47 -0.00287606
85.48 -0.00383776
85.49 -0.00474962
85.5 -0.00555936
85.51 -0.00622536
85.52 -0.00671555
85.53 -0.00700914
85.54 -0.00709721
85.55 -0.00698258
85.56 -0.00667906
85.57 -0.00620629
85.58 -0.00559483
85.59 -0.0048932
85.6 -0.00414182
85.61 -0.00338132
85.62 -0.00265016
85.63 -0.00198262
85.64 -0.00140707
85.65 -0.000944672
85.66 -0.000617558
85.67 -0.000424658
85.68 -0.000357662
85.69 -0.000404536
85.7 -0.000547349
85.71 -0.000763731
85.72 -0.00102853
85.73 -0.00131554
85.74 -0.00159882
85.75 -0.00185113
85.76 -0.00205429
85.77 -0.00219435
85.78 -0.00226279
85.79 -0.0022567
85.8 -0.00217868
85.81 -0.00203636
85.82 -0.0018416
85.83 -0.00160851
85.84 -0.001357
85.85 -0.00110664
85.86 -0.000874883
85.87 -0.000677438
85.88 -0.000527394
85.89 -0.000434514
85.9 -0.00040481
85.91 -0.000440371
85.92 -0.000544821
85.93 -0.000706324
85.94 -0.000915996
85.95 -0.00116308
85.96 -0.00143562
85.97 -0.00172125
85.98 -0.00200799
85.99 -0.00228495
86 -0.00254188
86.01 -0.00277041
86.02 -0.00296719
86.03 -0.00312995
86.04 -0.00325839
86.05 -0.00335384
86.06 -0.00341889
86.07 -0.00345683
86.08 -0.0034712
86.09 -0.00346404
86.1 -0.00343952
86.11 -0.00339987
86.12 -0.00334613
86.13 -0.00327866
86.14 -0.0031974
86.15 -0.00310223
86.16 -0.00299346
86.17 -0.00287212
86.18 -0.00274082
86.19 -0.00260539
86.2 -0.00247291
86.21 -0.00235264
86.22 -0.00225589
86.23 -0.00219557
86.24 -0.00218563
86.25 -0.00224018
86.26 -0.00237796
86.27 -0.00260909
86.28 -0.00293819
86.29 -0.00336805
86.3 -0.00389601
86.31 -0.00451323
86.32 -0.00520433
86.33 -0.0059473
86.34 -0.00671383
86.35 -0.00746571
86.36 -0.0081627
86.37 -0.00876418
86.38 -0.00922952
86.39 -0.00952031
86.4 -0.00960273
86.41 -0.00944976
86.42 -0.00904339
86.43 -0.00836482
86.44 -0.00742029
86.45 -0.00624376
86.46 -0.00486937
86.47 -0.00334363
86.48 -0.00172396
86.49 -7.65674e-05
86.5 0.00152628
86.51 0.00300949
86.52 0.00427632
86.53 0.00526672
86.54 0.00592402
86.55 0.00620242
86.56 0.00607201
86.57 0.00552104
86.58 0.00455757
86.59 0.00320997
86.6 0.00151883
86.61 -0.000448673
86.62 -0.00258487
86.63 -0.00479175
86.64 -0.00696397
86.65 -0.00899382
86.66 -0.0107764
86.67 -0.0122148
86.68 -0.0132255
86.69 -0.0137054
86.7 -0.0136309
86.71 -0.0130016
86.72 -0.0118309
86.73 -0.0101592
86.74 -0.00805259
86.75 -0.00560019
86.76 -0.0029108
86.77 -0.000108362
86.78 0.00265909
86.79 0.00524903
86.8 0.00753202
86.81 0.00939059
86.82 0.0107252
86.83 0.0114597
86.84 0.0115451
86.85 0.0109629
86.86 0.00969388
86.87 0.00780107
86.88 0.00539306
86.89 0.00257758
86.9 -0.000516765
86.91 -0.00374639
86.92 -0.00695958
86.93 -0.0100038
86.94 -0.0127329
86.95 -0.0149627
86.96 -0.0166176
86.97 -0.0176193
86.98 -0.0179204
86.99 -0.0175069
87 -0.0163991
87.01 -0.0146512
87.02 -0.0123479
87.03 -0.00958908
87.04 -0.00651984
87.05 -0.00331365
87.06 -0.000124836
87.07 0.00289504
87.08 0.00560478
87.09 0.00788063
87.1 0.00962249
87.11 0.0107589
87.12 0.0112002
87.13 0.010985
87.14 0.010161
87.15 0.00879653
87.16 0.00698766
87.17 0.00485297
87.18 0.00252715
87.19 0.000153781
87.2 -0.00211693
87.21 -0.00412146
87.22 -0.00574883
87.23 -0.00690179
87.24 -0.00751057
87.25 -0.00753655
87.26 -0.00697427
87.27 -0.00585171
87.28 -0.00422882
87.29 -0.00217599
87.3 0.00016675
87.31 0.00265282
87.32 0.00513996
87.33 0.00748474
87.34 0.00955032
87.35 0.0112138
87.36 0.0123729
87.37 0.0129471
87.38 0.0128385
87.39 0.0120939
87.4 0.0107416
87.41 0.00884167
87.42 0.00648283
87.43 0.00377752
87.44 0.000855947
87.45 -0.00214098
87.46 -0.00505923
87.47 -0.00774251
87.48 -0.0100718
87.49 -0.0119446
87.5 -0.0132843
87.51 -0.0140443
87.52 -0.0142102
87.53 -0.0138005
87.54 -0.0128652
87.55 -0.0114536
87.56 -0.00971452
87.57 -0.00777539
87.58 -0.00576859
87.59 -0.0038278
87.6 -0.00208018
87.61 -0.000638955
87.62 0.000403316
87.63 0.000964882
87.64 0.000992969
87.65 0.000522815
87.66 -0.000407313
87.67 -0.00172768
87.68 -0.00334072
87.69 -0.00512623
87.7 -0.00694802
87.71 -0.00866144
87.72 -0.0100942
87.73 -0.0111095
87.74 -0.0115995
87.75 -0.0114752
87.76 -0.0106795
87.77 -0.0091912
87.78 -0.00702745
87.79 -0.00424447
87.8 -0.000930029
87.81 0.00279756
87.82 0.00673633
87.83 0.0107057
87.84 0.0145144
87.85 0.0179703
87.86 0.0208895
87.87 0.0231059
87.88 0.0244802
87.89 0.0248518
87.9 0.0241678
87.91 0.0224573
87.92 0.0197578
87.93 0.0161528
87.94 0.0117689
87.95 0.00677078
87.96 0.00135421
87.97 -0.00426236
87.98 -0.00982243
87.99 -0.0150776
88 -0.0198057
88.01 -0.0238057
88.02 -0.0269064
88.03 -0.0289747
88.04 -0.0299213
88.05 -0.0297051
88.06 -0.0282926
88.07 -0.0257371
88.08 -0.0222186
88.09 -0.0178935
88.1 -0.0129512
88.11 -0.00760617
88.12 -0.00208758
88.13 0.0033705
88.14 0.00853966
88.15 0.0131528
88.16 0.0170406
88.17 0.0200656
88.18 0.0221224
88.19 0.0231502
88.2 0.0231342
88.21 0.0221059
88.22 0.02014
88.23 0.0173353
88.24 0.0138263
88.25 0.0098487
88.26 0.00559559
88.27 0.0012663
88.28 -0.002943
88.29 -0.00684793
88.3 -0.0102838
88.31 -0.0131127
88.32 -0.0151791
88.33 -0.0164328
88.34 -0.0168735
88.35 -0.0165159
88.36 -0.0154105
88.37 -0.01364
88.38 -0.0113143
88.39 -0.00856471
88.4 -0.00553608
88.41 -0.00238685
88.42 0.000709323
88.43 0.00360974
88.44 0.00618689
88.45 0.00833371
88.46 0.00996765
88.47 0.0110335
88.48 0.0115048
88.49 0.0113573
88.5 0.010628
88.51 0.00940486
88.52 0.00776784
88.53 0.00581242
88.54 0.00364437
88.55 0.00137438
88.56 -0.000887339
88.57 -0.00303614
88.58 -0.00495255
88.59 -0.00656846
88.6 -0.00782691
88.61 -0.00868882
88.62 -0.00913552
88.63 -0.00916846
88.64 -0.00880805
88.65 -0.00809169
88.66 -0.00706349
88.67 -0.00578684
88.68 -0.00435153
88.69 -0.00283126
88.7 -0.00129868
88.71 0.0001781
88.72 0.00153847
88.73 0.00273183
88.74 0.00371942
88.75 0.00445816
88.76 0.00494772
88.77 0.00519767
88.78 0.00522418
88.79 0.00505393
88.8 0.00472211
88.81 0.00427007
88.82 0.00374288
88.83 0.00318703
88.84 0.00265267
88.85 0.0021814
88.86 0.00180694
88.87 0.00155527
88.88 0.00144359
88.89 0.00147971
88.9 0.00166191
88.91 0.00197933
88.92 0.00241763
88.93 0.00294445
88.94 0.0035222
88.95 0.00411425
88.96 0.0046825
88.97 0.00518926
88.98 0.00559924
88.99 0.00588129
89 0.00600995
89.01 0.00594993
89.02 0.00570793
89.03 0.00528471
89.04 0.00469009
89.05 0.00394269
89.06 0.0030693
89.07 0.00210392
89.08 0.00108644
89.09 6.26866e-05
89.1 -0.000914235
89.11 -0.00179731
89.12 -0.00254174
89.13 -0.0031069
89.14 -0.00345829
89.15 -0.00356929
89.16 -0.00342263
89.17 -0.00301165
89.18 -0.00232176
89.19 -0.00138954
89.2 -0.000249635
89.21 0.00105641
89.22 0.00247751
89.23 0.00395474
89.24 0.00542337
89.25 0.00681538
89.26 0.00805684
89.27 0.00906489
89.28 0.00979107
89.29 0.0101849
89.3 0.0102075
89.31 0.00983358
89.32 0.0090536
89.33 0.00787473
89.34 0.00632151
89.35 0.00441837
89.36 0.00224317
89.37 -0.000118029
89.38 -0.00257757
89.39 -0.00503934
89.4 -0.00740244
89.41 -0.00956517
89.42 -0.0114294
89.43 -0.0129004
89.44 -0.0138577
89.45 -0.0142773
89.46 -0.014121
89.47 -0.0133726
89.48 -0.0120394
89.49 -0.0101535
89.5 -0.00777042
89.51 -0.00496799
89.52 -0.00183407
89.53 0.00150064
89.54 0.00489417
89.55 0.00821341
89.56 0.0113252
89.57 0.0141019
89.58 0.016427
89.59 0.0182001
89.6 0.0193419
89.61 0.0197344
89.62 0.019408
89.63 0.0183754
89.64 0.0166738
89.65 0.0143681
89.66 0.0115485
89.67 0.00832654
89.68 0.00483096
89.69 0.00120253
89.7 -0.00239572
89.71 -0.00581335
89.72 -0.00891576
89.73 -0.011583
89.74 -0.0137149
89.75 -0.0152355
89.76 -0.016096
89.77 -0.0162769
89.78 -0.0157435
89.79 -0.0145767
89.8 -0.0128642
89.81 -0.0107008
89.82 -0.00819946
89.83 -0.00548562
89.84 -0.00269102
89.85 5.22934e-05
89.86 0.00261312
89.87 0.0048492
89.88 0.00668324
89.89 0.00804495
89.9 0.00888915
89.91 0.00919737
89.92 0.00897811
89.93 0.00826582
89.94 0.00711863
89.95 0.00560032
89.96 0.00382461
89.97 0.00191132
89.98 -2.91572e-05
89.99 -0.00188835
90 -0.00356511
90.01 -0.00497061
90.02 -0.00603249
90.03 -0.00669758
90.04 -0.00689561
90.05 -0.00666224
90.06 -0.0060181
90.07 -0.00500475
90.08 -0.00368189
90.09 -0.00212384
90.1 -0.000415206
90.11 0.00135375
90.12 0.00308699
90.13 0.00468622
90.14 0.00607792
90.15 0.00719945
90.16 0.00800421
90.17 0.00846346
90.18 0.00856718
90.19 0.00832385
90.2 0.00775928
90.21 0.00689631
90.22 0.00581331
90.23 0.00457772
90.24 0.00325706
90.25 0.00191888
90.26 0.000627043
90.27 -0.000561664
90.28 -0.00160029
90.29 -0.00244851
90.3 -0.00307444
90.31 -0.00348591
90.32 -0.0036902
90.33 -0.00370561
90.34 -0.00355919
90.35 -0.00328397
90.36 -0.00291594
90.37 -0.00249085
90.38 -0.00204136
90.39 -0.00159653
90.4 -0.00117304
90.41 -0.000776992
90.42 -0.000404104
90.43 -4.00906e-05
90.44 0.000338098
90.45 0.000760264
90.46 0.00126143
90.47 0.00188814
90.48 0.00266437
90.49 0.0036142
90.5 0.00475146
90.51 0.0060771
90.52 0.00757712
90.53 0.00922146
90.54 0.0109638
90.55 0.0127407
90.56 0.0144661
90.57 0.0160522
90.58 0.0174071
90.59 0.0184393
90.6 0.0190618
90.61 0.0191984
90.62 0.0187883
90.63 0.017791
90.64 0.0161375
90.65 0.0138941
90.66 0.0111105
90.67 0.0078612
90.68 0.00424768
90.69 0.000394761
90.7 -0.00355382
90.71 -0.00744123
90.72 -0.011091
90.73 -0.0143125
90.74 -0.016971
90.75 -0.0189356
90.76 -0.0201007
90.77 -0.0203919
90.78 -0.0197712
90.79 -0.0182394
90.8 -0.015838
90.81 -0.0125994
90.82 -0.00870007
90.83 -0.00431494
90.84 0.000372799
90.85 0.0051629
90.86 0.00984684
90.87 0.0142172
90.88 0.0180771
90.89 0.0212342
90.9 0.023479
90.91 0.0247622
90.92 0.0250228
90.93 0.0242448
90.94 0.0224595
90.95 0.0197435
90.96 0.016216
90.97 0.0120332
90.98 0.00736715
90.99 0.00246211
91 -0.00244418
91.01 -0.00713134
91.02 -0.0113901
91.03 -0.015032
91.04 -0.0178979
91.05 -0.0198655
91.06 -0.0208522
91.07 -0.0207343
91.08 -0.019627
91.09 -0.0175997
91.1 -0.0147635
91.11 -0.0112657
91.12 -0.00728219
91.13 -0.00300867
91.14 0.00134862
91.15 0.00556913
91.16 0.00942994
91.17 0.0127666
91.18 0.0154357
91.19 0.0173296
91.2 0.0183804
91.21 0.0185627
91.22 0.017894
91.23 0.016433
91.24 0.0142297
91.25 0.0114758
91.26 0.0083373
91.27 0.00498591
91.28 0.00159852
91.29 -0.00165155
91.3 -0.00460327
91.31 -0.0071157
91.32 -0.00905783
91.33 -0.0103159
91.34 -0.0108909
91.35 -0.010782
91.36 -0.0100244
91.37 -0.00868658
91.38 -0.00686589
91.39 -0.00468246
91.4 -0.0022724
91.41 0.000215464
91.42 0.00261863
91.43 0.00480114
91.44 0.00664546
91.45 0.00805657
91.46 0.00896663
91.47 0.00933804
91.48 0.00916491
91.49 0.0084678
91.5 0.00727615
91.51 0.00571913
91.52 0.0039023
91.53 0.00194441
91.54 -2.94175e-05
91.55 -0.0018947
91.56 -0.00353448
91.57 -0.00484572
91.58 -0.00572105
91.59 -0.00609944
91.6 -0.00597366
91.61 -0.00534643
91.62 -0.00424858
91.63 -0.00273709
91.64 -0.000891673
91.65 0.00118979
91.66 0.00339675
91.67 0.00560231
91.68 0.00767985
91.69 0.00952135
91.7 0.0110325
91.71 0.0121379
91.72 0.0127846
91.73 0.0129451
91.74 0.0126183
91.75 0.0118155
91.76 0.0105853
91.77 0.00903181
91.78 0.0072481
91.79 0.0053388
91.8 0.00341412
91.81 0.00158407
91.82 -4.7508e-05
91.83 -0.00138834
91.84 -0.00233118
91.85 -0.00283829
91.86 -0.00289068
91.87 -0.00248652
91.88 -0.00164855
91.89 -0.000422634
91.9 0.00112487
91.91 0.00291078
91.92 0.00484022
91.93 0.00680143
91.94 0.00868074
91.95 0.0103792
91.96 0.0118081
91.97 0.0128929
91.98 0.0135776
91.99 0.0138268
92 0.0136274
92.01 0.0129651
92.02 0.0118882
92.03 0.0104682
92.04 0.00877734
92.05 0.00690025
92.06 0.00492963
92.07 0.00296156
92.08 0.00109081
92.09 -0.000592749
92.1 -0.00198078
92.11 -0.0030301
92.12 -0.00369628
92.13 -0.00395363
92.14 -0.00379587
92.15 -0.00323592
92.16 -0.00230474
92.17 -0.00104946
92.18 0.000477399
92.19 0.00219661
92.2 0.00401623
92.21 0.0058553
92.22 0.00763432
92.23 0.0092786
92.24 0.0107212
92.25 0.0119053
92.26 0.0127865
92.27 0.0133044
92.28 0.0134658
92.29 0.0132745
92.3 0.012743
92.31 0.0118956
92.32 0.0107664
92.33 0.00939743
92.34 0.00783703
92.35 0.006135
92.36 0.00434804
92.37 0.00253861
92.38 0.000758283
92.39 -0.000944783
92.4 -0.00252682
92.41 -0.00394921
92.42 -0.00517899
92.43 -0.0061891
92.44 -0.00694141
92.45 -0.00742962
92.46 -0.00765279
92.47 -0.00760905
92.48 -0.00730225
92.49 -0.00674193
92.5 -0.00594323
92.51 -0.00492693
92.52 -0.00371754
92.53 -0.00233947
92.54 -0.000846541
92.55 0.000718052
92.56 0.00230694
92.57 0.00386945
92.58 0.00535281
92.59 0.00670353
92.6 0.00786919
92.61 0.00878585
92.62 0.00940634
92.63 0.00970588
92.64 0.00965913
92.65 0.00925249
92.66 0.00848562
92.67 0.00737264
92.68 0.0059427
92.69 0.0042399
92.7 0.00230971
92.71 0.000249724
92.72 -0.00185538
92.73 -0.00391479
92.74 -0.00583428
92.75 -0.00752023
92.76 -0.00888378
92.77 -0.00984511
92.78 -0.0103189
92.79 -0.0102399
92.8 -0.00961171
92.81 -0.00843289
92.82 -0.00672617
92.83 -0.00453861
92.84 -0.00194056
92.85 0.000976408
92.86 0.00410275
92.87 0.00731147
92.88 0.0104521
92.89 0.0133884
92.9 0.0159903
92.91 0.0181381
92.92 0.0197287
92.93 0.0206804
92.94 0.0209374
92.95 0.0204588
92.96 0.0192144
92.97 0.0173021
92.98 0.0147962
92.99 0.011799
93 0.00843613
93.01 0.00485187
93.02 0.00120258
93.03 -0.00235004
93.04 -0.00562177
93.05 -0.00845344
93.06 -0.0107258
93.07 -0.0123341
93.08 -0.0132031
93.09 -0.0132904
93.1 -0.012589
93.11 -0.0111278
93.12 -0.00896798
93.13 -0.00616643
93.14 -0.00291475
93.15 0.000636219
93.16 0.00432166
93.17 0.00797025
93.18 0.011412
93.19 0.014486
93.2 0.0170479
93.21 0.0189442
93.22 0.0200699
93.23 0.0204066
93.24 0.0199385
93.25 0.0186869
93.26 0.016708
93.27 0.0140907
93.28 0.0109521
93.29 0.00743239
93.3 0.00368295
93.31 -9.93397e-05
93.32 -0.00374642
93.33 -0.00710052
93.34 -0.0100188
93.35 -0.0123795
93.36 -0.0140868
93.37 -0.0150749
93.38 -0.0152889
93.39 -0.0147035
93.4 -0.0134077
93.41 -0.0114698
93.42 -0.00898351
93.43 -0.00606278
93.44 -0.00283655
93.45 0.000557634
93.46 0.00397988
93.47 0.00727801
93.48 0.0103189
93.49 0.0129984
93.5 0.0152293
93.51 0.0169465
93.52 0.0181095
93.53 0.0187019
93.54 0.0187311
93.55 0.0182201
93.56 0.0171902
93.57 0.015751
93.58 0.0139792
93.59 0.0119573
93.6 0.00976935
93.61 0.00749718
93.62 0.00521674
93.63 0.00299528
93.64 0.000897754
93.65 -0.00102881
93.66 -0.00276059
93.67 -0.00428048
93.68 -0.00558207
93.69 -0.0066678
93.7 -0.00754689
93.71 -0.00823297
93.72 -0.00874174
93.73 -0.00907519
93.74 -0.00926184
93.75 -0.0093113
93.76 -0.00922837
93.77 -0.00901339
93.78 -0.00866271
93.79 -0.00816978
93.8 -0.00752658
93.81 -0.00671948
93.82 -0.00573965
93.83 -0.00459675
93.84 -0.00329792
93.85 -0.00185831
93.86 -0.000301993
93.87 0.00133777
93.88 0.00301894
93.89 0.0046918
93.9 0.00629124
93.91 0.00775587
93.92 0.00902758
93.93 0.0100504
93.94 0.0107751
93.95 0.0111625
93.96 0.0111862
93.97 0.0108352
93.98 0.0101081
93.99 0.00901525
94 0.00762928
94.01 0.00601211
94.02 0.00423965
94.03 0.00239866
94.04 0.000582845
94.05 -0.00111159
94.06 -0.00259075
94.07 -0.00374493
94.08 -0.00450117
94.09 -0.00481614
94.1 -0.00465662
94.11 -0.0040125
94.12 -0.00289814
94.13 -0.00135238
94.14 0.000562519
94.15 0.00276435
94.16 0.00515679
94.17 0.00760009
94.18 0.00997283
94.19 0.0121537
94.2 0.0140276
94.21 0.0154918
94.22 0.016461
94.23 0.0168725
94.24 0.0166624
94.25 0.0158226
94.26 0.0144109
94.27 0.0124841
94.28 0.0101253
94.29 0.00743989
94.3 0.00455084
94.31 0.00159272
94.32 -0.0012949
94.33 -0.00394588
94.34 -0.0062382
94.35 -0.00806605
94.36 -0.00934434
94.37 -0.0100155
94.38 -0.0100526
94.39 -0.00946116
94.4 -0.00827895
94.41 -0.00656232
94.42 -0.00440621
94.43 -0.0019675
94.44 0.00061503
94.45 0.00319446
94.46 0.00562326
94.47 0.00776088
94.48 0.00948115
94.49 0.0106789
94.5 0.0112311
94.51 0.0111167
94.52 0.0103465
94.53 0.00895087
94.54 0.0069939
94.55 0.00457074
94.56 0.00180294
94.57 -0.00116748
94.58 -0.00418328
94.59 -0.00705924
94.6 -0.00963717
94.61 -0.0117737
94.62 -0.0133458
94.63 -0.0142576
94.64 -0.0144456
94.65 -0.0138819
94.66 -0.0125767
94.67 -0.0105459
94.68 -0.00789673
94.69 -0.00478063
94.7 -0.00134591
94.71 0.00224114
94.72 0.00580422
94.73 0.00916575
94.74 0.0121556
94.75 0.0146198
94.76 0.0163578
94.77 0.0173279
94.78 0.0174769
94.79 0.0167907
94.8 0.015296
94.81 0.0130601
94.82 0.0101877
94.83 0.00681607
94.84 0.00310359
94.85 -0.000746538
94.86 -0.00452324
94.87 -0.00803488
94.88 -0.0111007
94.89 -0.0135596
94.9 -0.0152779
94.91 -0.0161562
94.92 -0.016134
94.93 -0.0151243
94.94 -0.0132167
94.95 -0.0105049
94.96 -0.00710499
94.97 -0.0031665
94.98 0.00113471
94.99 0.00560445
95 0.0100392
95.01 0.0142256
95.02 0.0179287
95.03 0.0209986
95.04 0.0232947
95.05 0.0247117
95.06 0.0251845
95.07 0.024691
95.08 0.0232535
95.09 0.0209373
95.1 0.0178095
95.11 0.0140533
95.12 0.00986912
95.13 0.00545114
95.14 0.00100341
95.15 -0.00326931
95.16 -0.00717088
95.17 -0.0105226
95.18 -0.0131656
95.19 -0.0149036
95.2 -0.0157267
95.21 -0.0156031
95.22 -0.0145438
95.23 -0.0126022
95.24 -0.00987104
95.25 -0.00647845
95.26 -0.00258177
95.27 0.00164514
95.28 0.00598344
95.29 0.0102201
95.3 0.0141623
95.31 0.0176318
95.32 0.020472
95.33 0.0225547
95.34 0.0237854
95.35 0.0241074
95.36 0.0234259
95.37 0.0218424
95.38 0.0194346
95.39 0.0163059
95.4 0.0125888
95.41 0.00843858
95.42 0.00402671
95.43 -0.000467091
95.44 -0.00485389
95.45 -0.00893284
95.46 -0.0125575
95.47 -0.015596
95.48 -0.0179434
95.49 -0.0195263
95.5 -0.0203043
95.51 -0.0202714
95.52 -0.0194548
95.53 -0.0178689
95.54 -0.0156456
95.55 -0.0129172
95.56 -0.00981431
95.57 -0.00647769
95.58 -0.00305178
95.59 0.000321693
95.6 0.00350973
95.61 0.0063874
95.62 0.00882043
95.63 0.0107628
95.64 0.0121681
95.65 0.0130164
95.66 0.0133136
95.67 0.0130901
95.68 0.012398
95.69 0.0113081
95.7 0.00989359
95.71 0.00826533
95.72 0.00653441
95.73 0.00479783
95.74 0.00314604
95.75 0.00165878
95.76 0.000401561
95.77 -0.000576937
95.78 -0.00124658
95.79 -0.0015673
95.8 -0.00158061
95.81 -0.00131629
95.82 -0.000818624
95.83 -0.000143544
95.84 0.00064498
95.85 0.00147887
95.86 0.00228999
95.87 0.00300849
95.88 0.00356974
95.89 0.00393642
95.9 0.00407979
95.91 0.00398658
95.92 0.00365964
95.93 0.00311769
95.94 0.00239423
95.95 0.00153557
95.96 0.000597121
95.97 -0.000346198
95.98 -0.00122642
95.99 -0.00197839
96 -0.00254235
96.01 -0.00286749
96.02 -0.00291505
96.03 -0.00266078
96.04 -0.0020898
96.05 -0.00119982
96.06 -4.33326e-05
96.07 0.00133352
96.08 0.00287087
96.09 0.0044979
96.1 0.00613633
96.11 0.00770427
96.12 0.00912044
96.13 0.0102897
96.14 0.0111457
96.15 0.0116448
96.16 0.0117523
96.17 0.0114519
96.18 0.0107476
96.19 0.00966357
96.2 0.00824346
96.21 0.0065474
96.22 0.00464536
96.23 0.00265103
96.24 0.000661638
96.25 -0.00122376
96.26 -0.00290907
96.27 -0.00430592
96.28 -0.00533808
96.29 -0.00594547
96.3 -0.00606449
96.31 -0.00567651
96.32 -0.00481341
96.33 -0.00350791
96.34 -0.00181459
96.35 0.000192262
96.36 0.00242197
96.37 0.00477147
96.38 0.00712998
96.39 0.00936544
96.4 0.0113671
96.41 0.013036
96.42 0.0142865
96.43 0.0150509
96.44 0.0152829
96.45 0.0149599
96.46 0.0140841
96.47 0.0126678
96.48 0.0107549
96.49 0.0084551
96.5 0.0058618
96.51 0.0030812
96.52 0.000227227
96.53 -0.00258373
96.54 -0.00523808
96.55 -0.00763024
96.56 -0.00963664
96.57 -0.0111933
96.58 -0.012258
96.59 -0.0128028
96.6 -0.0128232
96.61 -0.0123379
96.62 -0.0113873
96.63 -0.0100312
96.64 -0.00834163
96.65 -0.00640117
96.66 -0.00433088
96.67 -0.00222815
96.68 -0.000186951
96.69 0.00170655
96.7 0.00337789
96.71 0.00476743
96.72 0.00583265
96.73 0.0065299
96.74 0.00686138
96.75 0.00685752
96.76 0.00655073
96.77 0.00598638
96.78 0.00521955
96.79 0.00431126
96.8 0.00332458
96.81 0.00232073
96.82 0.00136353
96.83 0.000498208
96.84 -0.000242399
96.85 -0.000838616
96.86 -0.00128453
96.87 -0.00158764
96.88 -0.00176766
96.89 -0.00185451
96.9 -0.00188519
96.91 -0.00190661
96.92 -0.00196383
96.93 -0.00209555
96.94 -0.00233359
96.95 -0.0027001
96.96 -0.00320535
96.97 -0.00384625
96.98 -0.00460586
96.99 -0.00545722
97 -0.00634638
97.01 -0.00721753
97.02 -0.00801013
97.03 -0.00866121
97.04 -0.00910944
97.05 -0.00929923
97.06 -0.00918466
97.07 -0.00872453
97.08 -0.00788626
97.09 -0.0067003
97.1 -0.00519259
97.11 -0.00340825
97.12 -0.00141018
97.13 0.000723445
97.14 0.0029027
97.15 0.00503018
97.16 0.00698992
97.17 0.00868003
97.18 0.0100194
97.19 0.0109363
97.2 0.0113782
97.21 0.0113146
97.22 0.0107403
97.23 0.00967577
97.24 0.0081645
97.25 0.00625795
97.26 0.00409044
97.27 0.00177495
97.28 -0.000564873
97.29 -0.00280085
97.3 -0.00480674
97.31 -0.00646477
97.32 -0.00767197
97.33 -0.00831734
97.34 -0.00834092
97.35 -0.00774681
97.36 -0.0065451
97.37 -0.0047772
97.38 -0.0025144
97.39 0.000145163
97.4 0.003081
97.41 0.00615589
97.42 0.00920857
97.43 0.0120775
97.44 0.01462
97.45 0.0167075
97.46 0.0182317
97.47 0.0191109
97.48 0.0192936
97.49 0.0187619
97.5 0.0175116
97.51 0.0155837
97.52 0.0131102
97.53 0.0102064
97.54 0.00700767
97.55 0.00366303
97.56 0.00032753
97.57 -0.00284567
97.58 -0.00571306
97.59 -0.00810942
97.6 -0.0099468
97.61 -0.0111684
97.62 -0.0117402
97.63 -0.0116627
97.64 -0.0109707
97.65 -0.00973069
97.66 -0.00803745
97.67 -0.00600541
97.68 -0.00377154
97.69 -0.00150415
97.7 0.000654147
97.71 0.00256958
97.72 0.00412455
97.73 0.00522392
97.74 0.00580022
97.75 0.00581715
97.76 0.00524164
97.77 0.00412199
97.78 0.00254792
97.79 0.000614237
97.8 -0.00156318
97.81 -0.00385399
97.82 -0.00612082
97.83 -0.00822709
97.84 -0.0100442
97.85 -0.0114147
97.86 -0.0122838
97.87 -0.012597
97.88 -0.0123313
97.89 -0.0114973
97.9 -0.0101382
97.91 -0.00832797
97.92 -0.00616682
97.93 -0.00377242
97.94 -0.00129657
97.95 0.00110743
97.96 0.00330157
97.97 0.00515959
97.98 0.00657427
97.99 0.00746366
98 0.00777608
98.01 0.00749328
98.02 0.00658972
98.03 0.00516446
98.04 0.00331541
98.05 0.00115821
98.06 -0.00117183
98.07 -0.00352717
98.08 -0.00575628
98.09 -0.00771219
98.1 -0.00924759
98.11 -0.0102166
98.12 -0.0105706
98.13 -0.0102652
98.14 -0.00929309
98.15 -0.00768457
98.16 -0.00550682
98.17 -0.00286063
98.18 0.000124547
98.19 0.00329834
98.2 0.00646961
98.21 0.00946297
98.22 0.0121145
98.23 0.0142758
98.24 0.0158217
98.25 0.0166578
98.26 0.0167253
98.27 0.015998
98.28 0.0144459
98.29 0.0122073
98.3 0.00938893
98.31 0.0061284
98.32 0.00258652
98.33 -0.00106088
98.34 -0.0046323
98.35 -0.0079501
98.36 -0.0108222
98.37 -0.0130938
98.38 -0.0146805
98.39 -0.0155153
98.4 -0.0155716
98.41 -0.0148643
98.42 -0.0134497
98.43 -0.0114214
98.44 -0.00890562
98.45 -0.00603959
98.46 -0.00303563
98.47 -7.23166e-05
98.48 0.00267836
98.49 0.00505851
98.5 0.00693306
98.51 0.00819717
98.52 0.00878203
98.53 0.00863538
98.54 0.00775688
98.55 0.0062522
98.56 0.00421994
98.57 0.00178937
98.58 -0.000887003
98.59 -0.00364211
98.6 -0.0063039
98.61 -0.00870517
98.62 -0.0106535
98.63 -0.0120326
98.64 -0.012762
98.65 -0.0127904
98.66 -0.0121075
98.67 -0.0107452
98.68 -0.00877589
98.69 -0.00630901
98.7 -0.00348142
98.71 -0.0004641
98.72 0.0025384
98.73 0.00534608
98.74 0.00778815
98.75 0.00971291
98.76 0.0109967
98.77 0.0115512
98.78 0.0113293
98.79 0.0102861
98.8 0.00849084
98.81 0.00606835
98.82 0.00315229
98.83 -9.27229e-05
98.84 -0.00347987
98.85 -0.00681025
98.86 -0.00988379
98.87 -0.0125089
98.88 -0.0144475
98.89 -0.0156138
98.9 -0.0159185
98.91 -0.015319
98.92 -0.0138222
98.93 -0.011485
98.94 -0.00841245
98.95 -0.00475254
98.96 -0.00068179
98.97 0.00356259
98.98 0.00773239
98.99 0.0115987
99 0.0149442
99.01 0.0175748
99.02 0.0193305
99.03 0.0200941
99.04 0.0197983
99.05 0.0183467
99.06 0.0158678
99.07 0.0124853
99.08 0.00835764
99.09 0.00368382
99.1 -0.00130571
99.11 -0.0063608
99.12 -0.0112241
99.13 -0.015626
99.14 -0.0192827
99.15 -0.0220347
99.16 -0.0237337
99.17 -0.0242832
99.18 -0.0236442
99.19 -0.0218367
99.2 -0.0189399
99.21 -0.0150883
99.22 -0.0104294
99.23 -0.00524372
99.24 0.000190356
99.25 0.00560317
99.26 0.0107255
99.27 0.0153021
99.28 0.0191041
99.29 0.0219402
99.3 0.0236539
99.31 0.0240645
99.32 0.0232503
99.33 0.0212544
99.34 0.0181773
99.35 0.0141716
99.36 0.00943402
99.37 0.00419572
99.38 -0.00128934
99.39 -0.00674241
99.4 -0.011871
99.41 -0.0164373
99.42 -0.0202311
99.43 -0.0230822
99.44 -0.0248678
99.45 -0.0255175
99.46 -0.0250159
99.47 -0.0234022
99.48 -0.0206883
99.49 -0.0171155
99.5 -0.0128718
99.51 -0.00816598
99.52 -0.00322237
99.53 0.00173088
99.54 0.00647283
99.55 0.0108003
99.56 0.0145117
99.57 0.0174352
99.58 0.0195172
99.59 0.0207116
99.6 0.021017
99.61 0.0204746
99.62 0.0191642
99.63 0.0171985
99.64 0.0147151
99.65 0.011854
99.66 0.0088129
99.67 0.00575783
99.68 0.00283557
99.69 0.000173517
99.7 -0.0021262
99.71 -0.00399087
99.72 -0.00537956
99.73 -0.00627484
99.74 -0.00667778
99.75 -0.00668017
99.76 -0.00635824
99.77 -0.00580313
99.78 -0.00511412
99.79 -0.00439156
99.8 -0.00373003
99.81 -0.00321212
99.82 -0.00291794
99.83 -0.00288853
99.84 -0.00313025
99.85 -0.00363261
99.86 -0.00436164
99.87 -0.00526264
99.88 -0.00626418
99.89 -0.00728318
99.9 -0.00823017
99.91 -0.0089946
99.92 -0.00950492
99.93 -0.00969544
99.94 -0.00951891
99.95 -0.00895004
99.96 -0.00798766
99.97 -0.00665541
99.98 -0.00500086
99.99 -0.00308631
100 -0.00101009
100.01 0.00111294
100.02 0.00317483
100.03 0.00506814
100.04 0.00669226
100.05 0.00795922
100.06 0.00879896
100.07 0.00916354
100.08 0.00898944
100.09 0.00831984
100.1 0.00719725
100.11 0.00568228
100.12 0.00385643
100.13 0.00181751
100.14 -0.000325828
100.15 -0.00246025
100.16 -0.00446784
100.17 -0.0062257
100.18 -0.00765739
100.19 -0.00869726
100.2 -0.00930315
100.21 -0.00945854
100.22 -0.00917324
100.23 -0.00848248
100.24 -0.00744463
100.25 -0.00612592
100.26 -0.00464067
100.27 -0.00309865
100.28 -0.00160356
100.29 -0.000254031
100.3 0.000862159
100.31 0.00167334
100.32 0.00212814
100.33 0.00219398
100.34 0.00184232
100.35 0.0011329
100.36 0.000116186
100.37 -0.00113769
100.38 -0.00254326
100.39 -0.00400505
100.4 -0.00542339
100.41 -0.0067006
100.42 -0.00773113
100.43 -0.00843348
100.44 -0.00876535
100.45 -0.00869657
100.46 -0.00822152
100.47 -0.00735955
100.48 -0.00615385
100.49 -0.004669
100.5 -0.00298709
100.51 -0.00120285
100.52 0.000564682
100.53 0.00221388
100.54 0.00365067
100.55 0.00479395
100.56 0.00558056
100.57 0.00596923
100.58 0.0059433
100.59 0.00549879
100.6 0.00466857
100.61 0.00353951
100.62 0.00219352
100.63 0.000726448
100.64 -0.000757771
100.65 -0.00215356
100.66 -0.00336026
100.67 -0.00428856
100.68 -0.0048362
100.69 -0.00497151
100.7 -0.0046836
100.71 -0.00398255
100.72 -0.00290642
100.73 -0.00151949
100.74 9.10563e-05
100.75 0.00181987
100.76 0.00354682
100.77 0.00512921
100.78 0.00644924
100.79 0.00739921
100.8 0.00788954
100.81 0.00785476
100.82 0.00725806
100.83 0.00609444
100.84 0.00439201
100.85 0.00218871
100.86 -0.000398697
100.87 -0.00323168
100.88 -0.00616999
100.89 -0.00906244
100.9 -0.011755
100.91 -0.0140994
100.92 -0.0159613
100.93 -0.0172251
100.94 -0.0177435
100.95 -0.01753
100.96 -0.016581
100.97 -0.0149316
100.98 -0.0126545
100.99 -0.00985708
101 -0.00667598
101.01 -0.00327045
101.02 0.000179772
101.03 0.00347236
101.04 0.00643348
101.05 0.00890655
101.06 0.0107593
101.07 0.011891
101.08 0.0122381
101.09 0.0117778
101.1 0.0105298
101.11 0.00850341
101.12 0.00586569
101.13 0.00276525
101.14 -0.000632852
101.15 -0.00414766
101.16 -0.00759192
101.17 -0.010782
101.18 -0.0135477
101.19 -0.0157216
101.2 -0.0171511
101.21 -0.0178047
101.22 -0.0176534
101.23 -0.0167116
101.24 -0.0150362
101.25 -0.0127233
101.26 -0.00990304
101.27 -0.00673262
101.28 -0.0033885
101.29 -8.16305e-05
101.3 0.00300309
101.31 0.00569882
101.32 0.0078616
101.33 0.00937815
101.34 0.0101719
101.35 0.0102069
101.36 0.00948119
101.37 0.00800392
101.38 0.00593297
101.39 0.00339723
101.4 0.000550592
101.41 -0.00243668
101.42 -0.00538758
101.43 -0.00812819
101.44 -0.0104975
101.45 -0.0123236
101.46 -0.0134931
101.47 -0.0139638
101.48 -0.0137112
101.49 -0.0127526
101.5 -0.0111455
101.51 -0.0089845
101.52 -0.0063955
101.53 -0.00352872
101.54 -0.00055568
101.55 0.00232804
101.56 0.0049564
101.57 0.0071792
101.58 0.00887026
101.59 0.0099344
101.6 0.0103127
101.61 0.00998567
101.62 0.0089516
101.63 0.00726867
101.64 0.00507909
101.65 0.00251337
101.66 -0.000277952
101.67 -0.00313325
101.68 -0.00588926
101.69 -0.0083907
101.7 -0.0104993
101.71 -0.0120576
101.72 -0.0130112
101.73 -0.0133348
101.74 -0.0130331
101.75 -0.0121498
101.76 -0.0107654
101.77 -0.00899175
101.78 -0.00696577
101.79 -0.00484239
101.8 -0.00280269
101.81 -0.00100751
101.82 0.000403153
101.83 0.00131362
101.84 0.00164013
101.85 0.00133664
101.86 0.00039862
101.87 -0.00113568
101.88 -0.00321012
101.89 -0.00567502
101.9 -0.00835701
101.91 -0.0110786
101.92 -0.0136507
101.93 -0.0158838
101.94 -0.0175986
101.95 -0.0186373
101.96 -0.0188684
101.97 -0.0181265
101.98 -0.0164559
101.99 -0.0138787
102 -0.010468
102.01 -0.00634641
102.02 -0.00168054
102.03 0.00332622
102.04 0.00844338
102.05 0.0134068
102.06 0.0179342
102.07 0.0217986
102.08 0.0247902
102.09 0.0267364
102.1 0.027511
102.11 0.0270423
102.12 0.0253173
102.13 0.022384
102.14 0.0182711
102.15 0.0132455
102.16 0.00753926
102.17 0.00140852
102.18 -0.00486733
102.19 -0.0109992
102.2 -0.0167022
102.21 -0.0217099
102.22 -0.0257541
102.23 -0.0285862
102.24 -0.0301437
102.25 -0.0303619
102.26 -0.0292403
102.27 -0.0268421
102.28 -0.023291
102.29 -0.0187651
102.3 -0.0134878
102.31 -0.00770213
102.32 -0.00173867
102.33 0.00410553
102.34 0.00955607
102.35 0.0143625
102.36 0.0183104
102.37 0.0212311
102.38 0.02301
102.39 0.0235746
102.4 0.0228551
102.41 0.0210254
102.42 0.018215
102.43 0.0145981
102.44 0.0103845
102.45 0.00580699
102.46 0.00110969
102.47 -0.00346553
102.48 -0.00766184
102.49 -0.0112627
102.5 -0.0141296
102.51 -0.0161539
102.52 -0.017278
102.53 -0.0174959
102.54 -0.0168528
102.55 -0.0154413
102.56 -0.0133943
102.57 -0.0108513
102.58 -0.00805933
102.59 -0.00521757
102.6 -0.00252037
102.61 -0.000146737
102.62 0.0017497
102.63 0.00304929
102.64 0.00367293
102.65 0.00356
102.66 0.00271577
102.67 0.00124793
102.68 -0.000736723
102.69 -0.00309832
102.7 -0.00567245
102.71 -0.00828013
102.72 -0.0107385
102.73 -0.0128717
102.74 -0.014474
102.75 -0.015436
102.76 -0.01568
102.77 -0.0151621
102.78 -0.0138832
102.79 -0.0118899
102.8 -0.0092718
102.81 -0.00615714
102.82 -0.00270265
102.83 0.000895226
102.84 0.00441726
102.85 0.00766803
102.86 0.0104642
102.87 0.0126449
102.88 0.0140808
102.89 0.0146817
102.9 0.0144015
102.91 0.0131909
102.92 0.0111363
102.93 0.00837142
102.94 0.00503999
102.95 0.00131716
102.96 -0.00259983
102.97 -0.00650207
102.98 -0.0101802
102.99 -0.0134317
103 -0.016016
103.01 -0.0178361
103.02 -0.0187959
103.03 -0.0188455
103.04 -0.0179837
103.05 -0.0162585
103.06 -0.0137643
103.07 -0.0106373
103.08 -0.0070362
103.09 -0.00318346
103.1 0.00068705
103.11 0.00436228
103.12 0.00763992
103.13 0.0103392
103.14 0.0123103
103.15 0.0134427
103.16 0.0136707
103.17 0.0129013
103.18 0.011248
103.19 0.00880991
103.2 0.00572001
103.21 0.00214598
103.22 -0.00171849
103.23 -0.00566397
103.24 -0.00947633
103.25 -0.0129316
103.26 -0.015803
103.27 -0.0179599
103.28 -0.0192862
103.29 -0.0197097
103.3 -0.0192059
103.31 -0.0177991
103.32 -0.0155613
103.33 -0.0126076
103.34 -0.00906514
103.35 -0.00516356
103.36 -0.00112153
103.37 0.00284957
103.38 0.00654298
103.39 0.0097672
103.4 0.0123558
103.41 0.0141759
103.42 0.0151216
103.43 0.0150856
103.44 0.0141482
103.45 0.0123663
103.46 0.00983953
103.47 0.00670514
103.48 0.00313055
103.49 -0.000695469
103.5 -0.00457264
103.51 -0.00828057
103.52 -0.0116082
103.53 -0.0143956
103.54 -0.0165054
103.55 -0.0178368
103.56 -0.0183304
103.57 -0.0179703
103.58 -0.016785
103.59 -0.0148452
103.6 -0.0122131
103.61 -0.00910533
103.62 -0.00569308
103.63 -0.00216043
103.64 0.00130439
103.65 0.00451859
103.66 0.00731397
103.67 0.00954524
103.68 0.0110678
103.69 0.0117836
103.7 0.0117007
103.71 0.010829
103.72 0.00921804
103.73 0.00695428
103.74 0.00415626
103.75 0.000968391
103.76 -0.00244644
103.77 -0.00590534
103.78 -0.0092144
103.79 -0.0122081
103.8 -0.0147385
103.81 -0.0166812
103.82 -0.017941
103.83 -0.0184558
103.84 -0.0181994
103.85 -0.0171652
103.86 -0.0153721
103.87 -0.0129588
103.88 -0.0100367
103.89 -0.00673835
103.9 -0.0032108
103.91 0.000390989
103.92 0.00391146
103.93 0.00720131
103.94 0.0100933
103.95 0.0124703
103.96 0.0142551
103.97 0.0153851
103.98 0.0158265
103.99 0.0155742
104 0.0146511
104.01 0.0131059
104.02 0.011007
104.03 0.00841834
104.04 0.00549405
104.05 0.00234921
104.06 -0.000898097
104.07 -0.00413163
104.08 -0.00724136
104.09 -0.0101273
104.1 -0.0127028
104.11 -0.0148761
104.12 -0.0165882
104.13 -0.0178259
104.14 -0.018575
104.15 -0.0188379
104.16 -0.0186326
104.17 -0.01799
104.18 -0.0169525
104.19 -0.0155708
104.2 -0.0138829
104.21 -0.0119778
104.22 -0.00992087
104.23 -0.00777434
104.24 -0.00559822
104.25 -0.00344902
104.26 -0.00137878
104.27 0.000565625
104.28 0.00233658
104.29 0.00388885
104.3 0.00520555
104.31 0.00626492
104.32 0.00705132
104.33 0.00755519
104.34 0.00777306
104.35 0.00770756
104.36 0.00736747
104.37 0.00675081
104.38 0.00589375
104.39 0.00483061
104.4 0.00359511
104.41 0.00222593
104.42 0.000766047
104.43 -0.000738178
104.44 -0.00223815
104.45 -0.00368272
104.46 -0.00501154
104.47 -0.00618357
104.48 -0.00715726
104.49 -0.00789695
104.5 -0.00837442
104.51 -0.00857015
104.52 -0.00847429
104.53 -0.00808732
104.54 -0.0074061
104.55 -0.00646042
104.56 -0.00529462
104.57 -0.00395038
104.58 -0.00247617
104.59 -0.000925398
104.6 0.000645686
104.61 0.00218018
104.62 0.00362277
104.63 0.00490401
104.64 0.00598929
104.65 0.00684227
104.66 0.0074356
104.67 0.00775172
104.68 0.00778318
104.69 0.00753242
104.7 0.0070112
104.71 0.00623082
104.72 0.0052189
104.73 0.00402245
104.74 0.00267801
104.75 0.00122356
104.76 -0.000303168
104.77 -0.00186613
104.78 -0.00343218
104.79 -0.00497193
104.8 -0.00645458
104.81 -0.00786144
104.82 -0.00917778
104.83 -0.0103915
104.84 -0.0114931
104.85 -0.012475
104.86 -0.0133298
104.87 -0.0140504
104.88 -0.0146245
104.89 -0.0150336
104.9 -0.0152757
104.91 -0.0153365
104.92 -0.0152012
104.93 -0.0148548
104.94 -0.0142833
104.95 -0.0134757
104.96 -0.0124253
104.97 -0.0111166
104.98 -0.00956644
104.99 -0.00780094
105 -0.00584859
105.01 -0.00374845
105.02 -0.00154983
105.03 0.000688565
105.04 0.00290011
105.05 0.00501089
105.06 0.00692417
105.07 0.00857461
105.08 0.00989168
105.09 0.0108129
105.1 0.0112871
105.11 0.0112781
105.12 0.0107667
105.13 0.00975334
105.14 0.00823804
105.15 0.00627143
105.16 0.00394256
105.17 0.00133609
105.18 -0.00144838
105.19 -0.00430007
105.2 -0.00710153
105.21 -0.00973358
105.22 -0.0120806
105.23 -0.0139935
105.24 -0.015406
105.25 -0.0162519
105.26 -0.0164857
105.27 -0.0160873
105.28 -0.0150642
105.29 -0.0134512
105.3 -0.0113094
105.31 -0.00871325
105.32 -0.0057723
105.33 -0.00263751
105.34 0.000558265
105.35 0.00367941
105.36 0.0065938
105.37 0.00917886
105.38 0.0113272
105.39 0.0129518
105.4 0.0139448
105.41 0.0142998
105.42 0.0140297
105.43 0.0131626
105.44 0.011753
105.45 0.00987922
105.46 0.00763921
105.47 0.00514538
105.48 0.00251897
105.49 -0.000103921
105.5 -0.00259609
105.51 -0.0048502
105.52 -0.0067751
105.53 -0.0083
105.54 -0.00937756
105.55 -0.00998563
105.56 -0.0101277
105.57 -0.00981033
105.58 -0.00910058
105.59 -0.00808826
105.6 -0.00685959
105.61 -0.00550851
105.62 -0.00413105
105.63 -0.00281968
105.64 -0.00165791
105.65 -0.000715866
105.66 -7.38894e-05
105.67 0.000262988
105.68 0.000290348
105.69 2.57733e-05
105.7 -0.000492648
105.71 -0.00120904
105.72 -0.00205354
105.73 -0.0029469
105.74 -0.00380088
105.75 -0.00452257
105.76 -0.00504188
105.77 -0.00529945
105.78 -0.00525324
105.79 -0.0048816
105.8 -0.00418521
105.81 -0.00318757
105.82 -0.00193426
105.83 -0.000482069
105.84 0.00106518
105.85 0.00260945
105.86 0.00405055
105.87 0.00528938
105.88 0.00623395
105.89 0.00680526
105.9 0.00694235
105.91 0.00659457
105.92 0.00572888
105.93 0.00439926
105.94 0.00265364
105.95 0.000565274
105.96 -0.00177052
105.97 -0.004241
105.98 -0.00672164
105.99 -0.0090827
106 -0.0111723
106.01 -0.0128689
106.02 -0.0140815
106.03 -0.0147346
106.04 -0.0147802
106.05 -0.0142014
106.06 -0.0130137
106.07 -0.0112653
106.08 -0.00903129
106.09 -0.00640194
106.1 -0.00354899
106.11 -0.000617948
106.12 0.0022396
106.13 0.00487397
106.14 0.00714533
106.15 0.00893136
106.16 0.010134
106.17 0.0106517
106.18 0.0104528
106.19 0.00957854
106.2 0.0080766
106.21 0.00602898
106.22 0.00354817
106.23 0.000771501
106.24 -0.00214585
106.25 -0.00503896
106.26 -0.00771096
106.27 -0.0100086
106.28 -0.011797
106.29 -0.0129664
106.3 -0.0134391
106.31 -0.0131748
106.32 -0.0121723
106.33 -0.010471
106.34 -0.008132
106.35 -0.00527104
106.36 -0.00207361
106.37 0.00129203
106.38 0.00464629
106.39 0.00780762
106.4 0.0106021
106.41 0.0128728
106.42 0.0144883
106.43 0.0152908
106.44 0.0152589
106.45 0.0144018
106.46 0.012756
106.47 0.0103997
106.48 0.00745032
106.49 0.00405778
106.5 0.000397691
106.51 -0.0033353
106.52 -0.00691396
106.53 -0.010142
106.54 -0.0128432
106.55 -0.0148671
106.56 -0.0160969
106.57 -0.0164565
106.58 -0.0159138
106.59 -0.014484
106.6 -0.0121876
106.61 -0.00916398
106.62 -0.00559592
106.63 -0.0016651
106.64 0.00242629
106.65 0.00646561
106.66 0.0102406
106.67 0.01355
106.68 0.0162125
106.69 0.0179965
106.7 0.018864
106.71 0.0187602
106.72 0.0176788
106.73 0.0156624
106.74 0.0128009
106.75 0.00922675
106.76 0.005109
106.77 0.000639691
106.78 -0.00393925
106.79 -0.00838791
106.8 -0.0124897
106.81 -0.016045
106.82 -0.0188812
106.83 -0.0208608
106.84 -0.0218885
106.85 -0.0219157
106.86 -0.0208655
106.87 -0.0188666
106.88 -0.016038
106.89 -0.0125249
106.9 -0.00850459
106.91 -0.00417789
106.92 0.000241046
106.93 0.00453518
106.94 0.00848131
106.95 0.0118473
106.96 0.0145018
106.97 0.0163253
106.98 0.0172405
106.99 0.017215
107 0.0162631
107.01 0.0144439
107.02 0.0118578
107.03 0.00861154
107.04 0.00491465
107.05 0.000973949
107.06 -0.00301324
107.07 -0.00685097
107.08 -0.0103541
107.09 -0.0133571
107.1 -0.0157215
107.11 -0.0173338
107.12 -0.0180642
107.13 -0.0179591
107.14 -0.0170413
107.15 -0.0153717
107.16 -0.0130455
107.17 -0.0101863
107.18 -0.00693989
107.19 -0.00346599
107.2 6.39587e-05
107.21 0.0034663
107.22 0.00658899
107.23 0.00930049
107.24 0.0114936
107.25 0.0130896
107.26 0.0140409
107.27 0.0143318
107.28 0.0139782
107.29 0.012978
107.3 0.0114617
107.31 0.0095276
107.32 0.00728485
107.33 0.00484989
107.34 0.00234059
107.35 -0.000129758
107.36 -0.00245777
107.37 -0.00454401
107.38 -0.00630359
107.39 -0.0077054
107.4 -0.00872498
107.41 -0.0093586
107.42 -0.00962159
107.43 -0.00954573
107.44 -0.00917583
107.45 -0.00856586
107.46 -0.00776586
107.47 -0.00685064
107.48 -0.00587899
107.49 -0.00489879
107.5 -0.00394818
107.51 -0.00305403
107.52 -0.00223129
107.53 -0.00148324
107.54 -0.00080365
107.55 -0.000177383
107.56 0.000423204
107.57 0.0010229
107.58 0.00164551
107.59 0.00231083
107.6 0.00303197
107.61 0.0038132
107.62 0.00464848
107.63 0.00552128
107.64 0.00639844
107.65 0.00723938
107.66 0.00799786
107.67 0.0086235
107.68 0.00906513
107.69 0.00927443
107.7 0.00920961
107.71 0.00883799
107.72 0.0081121
107.73 0.00706157
107.74 0.00570525
107.75 0.00408002
107.76 0.00224011
107.77 0.000255408
107.78 -0.00179128
107.79 -0.00380785
107.8 -0.00568747
107.81 -0.00731921
107.82 -0.00862035
107.83 -0.0095123
107.84 -0.00993257
107.85 -0.00983867
107.86 -0.0092112
107.87 -0.00805582
107.88 -0.00640401
107.89 -0.00428317
107.9 -0.00181469
107.91 0.000891466
107.92 0.00371611
107.93 0.00653073
107.94 0.00920349
107.95 0.0116055
107.96 0.0136169
107.97 0.0151175
107.98 0.0159929
107.99 0.0162249
108 0.0157893
108.01 0.0146925
108.02 0.0129709
108.03 0.01069
108.04 0.00794101
108.05 0.00483731
108.06 0.00150363
108.07 -0.00189481
108.08 -0.00520759
108.09 -0.0082947
108.1 -0.0110271
108.11 -0.0132929
108.12 -0.0150021
108.13 -0.016091
108.14 -0.016517
108.15 -0.0162309
108.16 -0.0153194
108.17 -0.0138425
108.18 -0.0118842
108.19 -0.00954792
108.2 -0.00695177
108.21 -0.00422188
108.22 -0.00148629
108.23 0.00111942
108.24 0.00347088
108.25 0.00548124
108.26 0.00707909
108.27 0.0082172
108.28 0.00887417
108.29 0.00905466
108.3 0.00878826
108.31 0.00812718
108.32 0.00712123
108.33 0.00589275
108.34 0.00453931
108.35 0.00315936
108.36 0.00184802
108.37 0.000691713
108.38 -0.000236474
108.39 -0.000880718
108.4 -0.00119353
108.41 -0.0011541
108.42 -0.000795128
108.43 -0.000151007
108.44 0.000725357
108.45 0.00176596
108.46 0.00289191
108.47 0.00401827
108.48 0.00505919
108.49 0.00591504
108.5 0.00651754
108.51 0.00681536
108.52 0.0067717
108.53 0.00637014
108.54 0.00561572
108.55 0.004535
108.56 0.00317476
108.57 0.00159706
108.58 -0.00011679
108.59 -0.00186066
108.6 -0.00353979
108.61 -0.00506079
108.62 -0.00633678
108.63 -0.00729229
108.64 -0.00786764
108.65 -0.00802236
108.66 -0.00771213
108.67 -0.00695581
108.68 -0.00580229
108.69 -0.00430654
108.7 -0.00254262
108.71 -0.000600059
108.72 0.00142061
108.73 0.00341294
108.74 0.00526902
108.75 0.00685759
108.76 0.00810436
108.77 0.00893762
108.78 0.00930597
108.79 0.00918108
108.8 0.00855942
108.81 0.00746269
108.82 0.00593701
108.83 0.00403922
108.84 0.00186813
108.85 -0.000452915
108.86 -0.00280979
108.87 -0.00508529
108.88 -0.00716476
108.89 -0.00894175
108.9 -0.0103231
108.91 -0.0112338
108.92 -0.0115741
108.93 -0.0113539
108.94 -0.010582
108.95 -0.00928697
108.96 -0.00752182
108.97 -0.00536141
108.98 -0.00289895
108.99 -0.000241628
109 0.00249314
109.01 0.0051708
109.02 0.00767137
109.03 0.00988793
109.04 0.0117274
109.05 0.0131147
109.06 0.013996
109.07 0.0143407
109.08 0.014143
109.09 0.0133889
109.1 0.0121491
109.11 0.0105048
109.12 0.00853975
109.13 0.0063503
109.14 0.0040405
109.15 0.00171732
109.16 -0.000514391
109.17 -0.00255312
109.18 -0.0042854
109.19 -0.00566025
109.2 -0.00662834
109.21 -0.00716047
109.22 -0.00724829
109.23 -0.00690404
109.24 -0.00615921
109.25 -0.00506251
109.26 -0.0036659
109.27 -0.00205595
109.28 -0.000326178
109.29 0.00144021
109.3 0.00316235
109.31 0.0047655
109.32 0.00618435
109.33 0.00736572
109.34 0.00827062
109.35 0.00884737
109.36 0.00911665
109.37 0.00909052
109.38 0.00879383
109.39 0.00826309
109.4 0.00754395
109.41 0.00668823
109.42 0.00575084
109.43 0.00478754
109.44 0.003856
109.45 0.00300121
109.46 0.00225831
109.47 0.00165213
109.48 0.00119633
109.49 0.000893115
109.5 0.00073373
109.51 0.000699512
109.52 0.000768446
109.53 0.000898088
109.54 0.00104963
109.55 0.0011858
109.56 0.00127173
109.57 0.00127744
109.58 0.00118002
109.59 0.000965373
109.6 0.000627085
109.61 0.000167549
109.62 -0.000384657
109.63 -0.00100037
109.64 -0.00164237
109.65 -0.00226741
109.66 -0.00282869
109.67 -0.00327859
109.68 -0.0035716
109.69 -0.00365333
109.7 -0.00349384
109.71 -0.00308041
109.72 -0.00240597
109.73 -0.00147729
109.74 -0.00031542
109.75 0.00104449
109.76 0.00255418
109.77 0.00415409
109.78 0.00577003
109.79 0.00731928
109.8 0.00872458
109.81 0.00991077
109.82 0.0108086
109.83 0.0113582
109.84 0.0115127
109.85 0.0112411
109.86 0.010511
109.87 0.00933007
109.88 0.00775187
109.89 0.00582759
109.9 0.00362666
109.91 0.00123435
109.92 -0.00125135
109.93 -0.00372358
109.94 -0.00607101
109.95 -0.00815372
109.96 -0.00987526
109.97 -0.0111456
109.98 -0.0118878
109.99 -0.0120443
110 -0.0115806
110.01 -0.0104866
110.02 -0.00877864
110.03 -0.00648453
110.04 -0.00366405
110.05 -0.000449868
110.06 0.00304348
110.07 0.00668693
110.08 0.0103419
110.09 0.0138659
110.1 0.0171182
110.11 0.0199658
110.12 0.022246
110.13 0.0238728
110.14 0.0247883
110.15 0.024948
110.16 0.024337
110.17 0.0229712
110.18 0.0208964
110.19 0.0181871
110.2 0.0149384
110.21 0.0112595
110.22 0.00733464
110.23 0.00331616
110.24 -0.000640342
110.25 -0.00438229
110.26 -0.00776651
110.27 -0.0106652
110.28 -0.0129712
110.29 -0.0145642
110.3 -0.0153963
110.31 -0.0154814
110.32 -0.0148364
110.33 -0.0135093
110.34 -0.0115765
110.35 -0.00913968
110.36 -0.00632096
110.37 -0.00325773
110.38 -0.000101134
110.39 0.00297968
110.4 0.00584199
110.41 0.00835543
110.42 0.0104075
110.43 0.0119085
110.44 0.0127952
110.45 0.0130338
110.46 0.0125978
110.47 0.0115092
110.48 0.0098682
110.49 0.00776303
110.5 0.00530314
110.51 0.0026139
110.52 -0.000169293
110.53 -0.00290729
110.54 -0.00546364
110.55 -0.00767843
110.56 -0.0094496
110.57 -0.0106961
110.58 -0.0113564
110.59 -0.0113968
110.6 -0.0108129
110.61 -0.00962972
110.62 -0.0079002
110.63 -0.00569494
110.64 -0.00310806
110.65 -0.000292726
110.66 0.00262136
110.67 0.0055009
110.68 0.00821518
110.69 0.0106422
110.7 0.012674
110.71 0.0142222
110.72 0.0151851
110.73 0.0155381
110.74 0.0152947
110.75 0.0144778
110.76 0.0131367
110.77 0.0113444
110.78 0.00919453
110.79 0.0067961
110.8 0.00426874
110.81 0.00174858
110.82 -0.000632805
110.83 -0.00276185
110.84 -0.00453853
110.85 -0.00588088
110.86 -0.00672852
110.87 -0.00704518
110.88 -0.00682006
110.89 -0.0060459
110.9 -0.00476849
110.91 -0.00308008
110.92 -0.00106528
110.93 0.00117744
110.94 0.00354061
110.95 0.00591292
110.96 0.00818443
110.97 0.0102517
110.98 0.0119904
110.99 0.0133422
111 0.014256
111.01 0.0146993
111.02 0.0146614
111.03 0.0141539
111.04 0.013209
111.05 0.011878
111.06 0.0102205
111.07 0.00831772
111.08 0.00627803
111.09 0.00419244
111.1 0.00215014
111.11 0.000234423
111.12 -0.00148107
111.13 -0.00293541
111.14 -0.00408278
111.15 -0.00486983
111.16 -0.00530104
111.17 -0.0053941
111.18 -0.00517382
111.19 -0.00467858
111.2 -0.0039577
111.21 -0.00306842
111.22 -0.00207253
111.23 -0.00103322
111.24 -1.7988e-05
111.25 0.000916965
111.26 0.00172689
111.27 0.00237773
111.28 0.00284749
111.29 0.00312679
111.3 0.0032189
111.31 0.00313889
111.32 0.00290638
111.33 0.00256254
111.34 0.00215464
111.35 0.00172712
111.36 0.00132469
111.37 0.000989711
111.38 0.000759785
111.39 0.000665675
111.4 0.000729646
111.41 0.000980446
111.42 0.00140313
111.43 0.0019872
111.44 0.00271287
111.45 0.00355204
111.46 0.00446984
111.47 0.00542656
111.48 0.00637967
111.49 0.00728259
111.5 0.00808751
111.51 0.00876053
111.52 0.00927056
111.53 0.00959355
111.54 0.00971345
111.55 0.00962268
111.56 0.00932223
111.57 0.00882129
111.58 0.00812407
111.59 0.00726791
111.6 0.00628501
111.61 0.00520776
111.62 0.00407026
111.63 0.00290681
111.64 0.0017505
111.65 0.000632041
111.66 -0.000419241
111.67 -0.00137378
111.68 -0.00221905
111.69 -0.00294228
111.7 -0.00353523
111.71 -0.00399383
111.72 -0.00431763
111.73 -0.00450913
111.74 -0.00457309
111.75 -0.00450874
111.76 -0.00432776
111.77 -0.00404162
111.78 -0.00365774
111.79 -0.00318323
111.8 -0.00262481
111.81 -0.00198893
111.82 -0.00128203
111.83 -0.000510384
111.84 0.00032239
111.85 0.00120209
111.86 0.0021186
111.87 0.00306015
111.88 0.00401324
111.89 0.00496268
111.9 0.00589188
111.91 0.00678316
111.92 0.00761487
111.93 0.00836666
111.94 0.00902456
111.95 0.00957367
111.96 0.0100017
111.97 0.0102997
111.98 0.0104625
111.99 0.010489
112 0.0103824
112.01 0.0101405
112.02 0.00978575
112.03 0.00933468
112.04 0.00880499
112.05 0.00821585
112.06 0.0075869
112.07 0.00693717
112.08 0.00628414
112.09 0.00564359
112.1 0.00502906
112.11 0.00444693
112.12 0.0039005
112.13 0.0033893
112.14 0.0029094
112.15 0.00245417
112.16 0.00201504
112.17 0.00158263
112.18 0.00114709
112.19 0.000700431
112.2 0.000238379
112.21 -0.000239748
112.22 -0.000730323
112.23 -0.00122507
112.24 -0.0017111
112.25 -0.00217127
112.26 -0.00258384
112.27 -0.00291877
112.28 -0.00315596
112.29 -0.00327239
112.3 -0.00324784
112.31 -0.00306661
112.32 -0.00271909
112.33 -0.00220316
112.34 -0.00152522
112.35 -0.000694096
112.36 0.00025909
112.37 0.00129332
112.38 0.00236599
112.39 0.0034289
112.4 0.00443044
112.41 0.00531809
112.42 0.00604122
112.43 0.00655398
112.44 0.00679203
112.45 0.00675071
112.46 0.00641791
112.47 0.00579602
112.48 0.00490279
112.49 0.00377142
112.5 0.00244978
112.51 0.000998853
112.52 -0.000508633
112.53 -0.00198264
112.54 -0.003337
112.55 -0.00448943
112.56 -0.00536328
112.57 -0.00589174
112.58 -0.00602183
112.59 -0.00571783
112.6 -0.00496403
112.61 -0.00373402
112.62 -0.00209103
112.63 -9.85589e-05
112.64 0.00216642
112.65 0.00460937
112.66 0.00712202
112.67 0.00958702
112.68 0.0118832
112.69 0.0138819
112.7 0.0154418
112.71 0.0164909
112.72 0.0169555
112.73 0.0167859
112.74 0.0159599
112.75 0.0144848
112.76 0.0123975
112.77 0.00976421
112.78 0.00665701
112.79 0.00322241
112.8 -0.00038753
112.81 -0.00402364
112.82 -0.00753241
112.83 -0.010763
112.84 -0.0135742
112.85 -0.0158409
112.86 -0.0174543
112.87 -0.0182777
112.88 -0.0183314
112.89 -0.017612
112.9 -0.01615
112.91 -0.0140082
112.92 -0.0112795
112.93 -0.00808164
112.94 -0.00455252
112.95 -0.000842554
112.96 0.00287054
112.97 0.00642479
112.98 0.00967629
112.99 0.0124984
113 0.0147874
113.01 0.0164674
113.02 0.0174933
113.03 0.0178525
113.04 0.0175133
113.05 0.0165869
113.06 0.0151627
113.07 0.0133465
113.08 0.0112598
113.09 0.00903314
113.1 0.00679856
113.11 0.00468288
113.12 0.00281153
113.13 0.00129968
113.14 0.000198917
113.15 -0.000451114
113.16 -0.000639939
113.17 -0.000386305
113.18 0.000263408
113.19 0.00123831
113.2 0.00244748
113.21 0.00378653
113.22 0.00512413
113.23 0.00634445
113.24 0.0073422
113.25 0.00802639
113.26 0.00832601
113.27 0.0081946
113.28 0.00761338
113.29 0.0065864
113.3 0.00513601
113.31 0.00336959
113.32 0.00138322
113.33 -0.000709411
113.34 -0.00278335
113.35 -0.00470945
113.36 -0.00636178
113.37 -0.00762514
113.38 -0.00837057
113.39 -0.00852806
113.4 -0.00807973
113.41 -0.00702143
113.42 -0.00538325
113.43 -0.00322886
113.44 -0.000653049
113.45 0.00222248
113.46 0.00525488
113.47 0.00827177
113.48 0.011098
113.49 0.0135756
113.5 0.0155604
113.51 0.0169295
113.52 0.0175885
113.53 0.0174775
113.54 0.0165747
113.55 0.0148701
113.56 0.0124251
113.57 0.0093876
113.58 0.00589625
113.59 0.00211617
113.6 -0.00176914
113.61 -0.00556679
113.62 -0.00908414
113.63 -0.0121386
113.64 -0.0145064
113.65 -0.0160864
113.66 -0.0167987
113.67 -0.0165961
113.68 -0.0154771
113.69 -0.0134862
113.7 -0.0107124
113.71 -0.0072858
113.72 -0.003364
113.73 0.000850965
113.74 0.00511483
113.75 0.00921113
113.76 0.0129297
113.77 0.0160774
113.78 0.0184878
113.79 0.0200298
113.8 0.0206147
113.81 0.0201377
113.82 0.0186495
113.83 0.0162508
113.84 0.0130582
113.85 0.00922943
113.86 0.00495583
113.87 0.000453044
113.88 -0.00404946
113.89 -0.00831537
113.9 -0.0120665
113.91 -0.0151296
113.92 -0.0173416
113.93 -0.0185806
113.94 -0.0187724
113.95 -0.0178944
113.96 -0.0159772
113.97 -0.0131033
113.98 -0.00937256
113.99 -0.00498743
114 -0.00019898
114.01 0.00475756
114.02 0.00963701
114.03 0.0141961
114.04 0.0182052
114.05 0.0214598
114.06 0.02379
114.07 0.0249703
114.08 0.025012
114.09 0.0239124
114.1 0.0217164
114.11 0.018522
114.12 0.0144755
114.13 0.00976465
114.14 0.0046101
114.15 -0.000742769
114.16 -0.00600823
114.17 -0.0109251
114.18 -0.0152583
114.19 -0.0187995
114.2 -0.0213767
114.21 -0.0228622
114.22 -0.0231783
114.23 -0.0223007
114.24 -0.0201815
114.25 -0.0169784
114.26 -0.0128593
114.27 -0.0080068
114.28 -0.00263558
114.29 0.00301798
114.3 0.0087064
114.31 0.0141824
114.32 0.0191982
114.33 0.0234805
114.34 0.0268923
114.35 0.0292998
114.36 0.0306152
114.37 0.0307996
114.38 0.0298642
114.39 0.0278685
114.4 0.0249169
114.41 0.0211178
114.42 0.0166874
114.43 0.0118595
114.44 0.0068502
114.45 0.00187719
114.46 -0.00284926
114.47 -0.00713559
114.48 -0.010813
114.49 -0.0137427
114.5 -0.0157413
114.51 -0.0168297
114.52 -0.0169993
114.53 -0.0162821
114.54 -0.0147488
114.55 -0.0125036
114.56 -0.00967935
114.57 -0.00643049
114.58 -0.00292276
114.59 0.000647864
114.6 0.00409694
114.61 0.00726325
114.62 0.0100031
114.63 0.0121957
114.64 0.0137479
114.65 0.0145973
114.66 0.0147135
114.67 0.0140427
114.68 0.0126755
114.69 0.0106913
114.7 0.00818382
114.71 0.00526646
114.72 0.00206732
114.73 -0.00127656
114.74 -0.00462494
114.75 -0.00783302
114.76 -0.0107462
114.77 -0.0132612
114.78 -0.015282
114.79 -0.016733
114.8 -0.0175617
114.81 -0.0177393
114.82 -0.0172614
114.83 -0.0161472
114.84 -0.0144034
114.85 -0.0121221
114.86 -0.00940283
114.87 -0.00634087
114.88 -0.00304102
114.89 0.000386269
114.9 0.00382866
114.91 0.00717566
114.92 0.0103191
114.93 0.0131316
114.94 0.0155498
114.95 0.017506
114.96 0.0189491
114.97 0.019845
114.98 0.020178
114.99 0.0199505
115 0.0191827
115.01 0.0178894
115.02 0.016134
115.03 0.0140078
115.04 0.01159
115.05 0.00896803
115.06 0.00623389
115.07 0.00348155
115.08 0.000803618
115.09 -0.00171181
115.1 -0.00395618
115.11 -0.00587573
115.12 -0.00741771
115.13 -0.00854327
115.14 -0.00923009
115.15 -0.00947318
115.16 -0.00928498
115.17 -0.0086948
115.18 -0.00773758
115.19 -0.00647255
115.2 -0.00499313
115.21 -0.00337901
115.22 -0.00171388
115.23 -8.1763e-05
115.24 0.00143667
115.25 0.00276775
115.26 0.00384817
115.27 0.0046033
115.28 0.00501392
115.29 0.00507395
115.3 0.00478929
115.31 0.00418394
115.32 0.00329896
115.33 0.00219048
115.34 0.000927004
115.35 -0.000413827
115.36 -0.00174027
115.37 -0.00296467
115.38 -0.00400918
115.39 -0.00480498
115.4 -0.00529615
115.41 -0.00544292
115.42 -0.00522418
115.43 -0.00463907
115.44 -0.00368999
115.45 -0.00243212
115.46 -0.000941216
115.47 0.000704302
115.48 0.00241456
115.49 0.00409268
115.5 0.00563979
115.51 0.00696021
115.52 0.00796557
115.53 0.00854215
115.54 0.00866884
115.55 0.00831665
115.56 0.00748107
115.57 0.0061831
115.58 0.00446902
115.59 0.00240887
115.6 9.36401e-05
115.61 -0.00236957
115.62 -0.00484508
115.63 -0.00719934
115.64 -0.00930742
115.65 -0.0110524
115.66 -0.0123317
115.67 -0.0130622
115.68 -0.0131856
115.69 -0.0126712
115.7 -0.0114694
115.71 -0.00966305
115.72 -0.00732849
115.73 -0.00456117
115.74 -0.0014796
115.75 0.00178003
115.76 0.00507012
115.77 0.00823864
115.78 0.0111254
115.79 0.013561
115.8 0.015449
115.81 0.0166982
115.82 0.0172468
115.83 0.0170662
115.84 0.0161626
115.85 0.0145768
115.86 0.0123829
115.87 0.00965987
115.88 0.00657241
115.89 0.00328501
115.9 -4.22527e-05
115.91 -0.00324759
115.92 -0.00617548
115.93 -0.00868437
115.94 -0.0106537
115.95 -0.011982
115.96 -0.0125546
115.97 -0.0124069
115.98 -0.0115568
115.99 -0.0100572
116 -0.00799368
116.01 -0.00547975
116.02 -0.00265131
116.03 0.000340377
116.04 0.00332827
116.05 0.00613507
116.06 0.00861509
116.07 0.0106401
116.08 0.0121065
116.09 0.0129405
116.1 0.0131019
116.11 0.0125857
116.12 0.0114226
116.13 0.00963316
116.14 0.00737446
116.15 0.00477401
116.16 0.00197386
116.17 -0.000874352
116.18 -0.00361738
116.19 -0.00610832
116.2 -0.00821424
116.21 -0.00980256
116.22 -0.0107673
116.23 -0.0110925
116.24 -0.010766
116.25 -0.00981022
116.26 -0.00828081
116.27 -0.00626344
116.28 -0.00386926
116.29 -0.00122889
116.3 0.00151093
116.31 0.00418226
116.32 0.00664039
116.33 0.00875494
116.34 0.0104148
116.35 0.0115337
116.36 0.0120548
116.37 0.0119532
116.38 0.0112262
116.39 0.00989026
116.4 0.00806858
116.41 0.00586301
116.42 0.00339429
116.43 0.00079549
116.44 -0.00179531
116.45 -0.0042424
116.46 -0.00641974
116.47 -0.00818998
116.48 -0.00946806
116.49 -0.0102142
116.5 -0.0104048
116.51 -0.0100477
116.52 -0.00918112
116.53 -0.00787141
116.54 -0.00620918
116.55 -0.00430372
116.56 -0.00227977
116.57 -0.000286562
116.58 0.00155002
116.59 0.00311405
116.6 0.00430587
116.61 0.00504756
116.62 0.00528704
116.63 0.00500096
116.64 0.00417504
116.65 0.00284972
116.66 0.001121
116.67 -0.000918846
116.68 -0.0031599
116.69 -0.00548059
116.7 -0.00775429
116.71 -0.00985618
116.72 -0.0116699
116.73 -0.013055
116.74 -0.0139541
116.75 -0.0143216
116.76 -0.0141351
116.77 -0.0134008
116.78 -0.0121538
116.79 -0.0104551
116.8 -0.00838888
116.81 -0.0060536
116.82 -0.0035725
116.83 -0.00108428
116.84 0.00129077
116.85 0.00344048
116.86 0.00526655
116.87 0.00668955
116.88 0.0076528
116.89 0.00812501
116.9 0.00806973
116.91 0.00753455
116.92 0.00658484
116.93 0.00529309
116.94 0.00374808
116.95 0.00204962
116.96 0.000302887
116.97 -0.0013875
116.98 -0.00292026
116.99 -0.0041846
117 -0.00512876
117.01 -0.00570754
117.02 -0.00589843
117.03 -0.00570227
117.04 -0.00514265
117.05 -0.00426401
117.06 -0.00312857
117.07 -0.0018076
117.08 -0.000398888
117.09 0.00100151
117.1 0.00230783
117.11 0.00344239
117.12 0.00433997
117.13 0.00495159
117.14 0.0052471
117.15 0.00521675
117.16 0.00484562
117.17 0.00419744
117.18 0.00332502
117.19 0.00229333
117.2 0.00117636
117.21 5.23433e-05
117.22 -0.00100122
117.23 -0.0019125
117.24 -0.00261081
117.25 -0.00303958
117.26 -0.00318572
117.27 -0.00304337
117.28 -0.00262677
117.29 -0.00196947
117.3 -0.00112238
117.31 -0.000150689
117.32 0.00087013
117.33 0.00185027
117.34 0.00270265
117.35 0.00335332
117.36 0.00373869
117.37 0.00381055
117.38 0.00353961
117.39 0.00291789
117.4 0.00195995
117.41 0.000697965
117.42 -0.000814613
117.43 -0.00247608
117.44 -0.00419328
117.45 -0.00586496
117.46 -0.00738741
117.47 -0.00866033
117.48 -0.00959278
117.49 -0.0101086
117.5 -0.0101212
117.51 -0.00960949
117.52 -0.00859014
117.53 -0.00709066
117.54 -0.00516549
117.55 -0.00289388
117.56 -0.000376296
117.57 0.00227023
117.58 0.00491721
117.59 0.00740872
117.6 0.00961881
117.61 0.0114309
117.62 0.0127461
117.63 0.0134884
117.64 0.0136093
117.65 0.0130906
117.66 0.0119463
117.67 0.0101998
117.68 0.00793696
117.69 0.0052944
117.7 0.00240003
117.71 -0.000604302
117.72 -0.00356995
117.73 -0.00634892
117.74 -0.00880144
117.75 -0.0108031
117.76 -0.0121988
117.77 -0.0129522
117.78 -0.0130336
117.79 -0.0124415
117.8 -0.0112087
117.81 -0.00940108
117.82 -0.00711391
117.83 -0.00446756
117.84 -0.00159948
117.85 0.00132399
117.86 0.0041351
117.87 0.00668526
117.88 0.00883951
117.89 0.0104835
117.9 0.0115293
117.91 0.0119202
117.92 0.0116332
117.93 0.0106387
117.94 0.00902177
117.95 0.00688617
117.96 0.00434527
117.97 0.0015334
117.98 -0.00140099
117.99 -0.00430297
118 -0.00701912
118.01 -0.00939923
118.02 -0.0112742
118.03 -0.0125753
118.04 -0.0132354
118.05 -0.0132203
118.06 -0.0125312
118.07 -0.011204
118.08 -0.00930765
118.09 -0.00694074
118.1 -0.00421561
118.11 -0.00129604
118.12 0.00165093
118.13 0.00447118
118.14 0.00701742
118.15 0.0091566
118.16 0.0107766
118.17 0.0117916
118.18 0.0121465
118.19 0.0117579
118.2 0.0107059
118.21 0.00904508
118.22 0.00685817
118.23 0.00425299
118.24 0.00135682
118.25 -0.00169031
118.26 -0.00474277
118.27 -0.00764649
118.28 -0.010247
118.29 -0.0124395
118.3 -0.0141335
118.31 -0.0152653
118.32 -0.0158016
118.33 -0.0157398
118.34 -0.015108
118.35 -0.0139628
118.36 -0.0123601
118.37 -0.0104387
118.38 -0.00832348
118.39 -0.00613752
118.4 -0.00400258
118.41 -0.00203255
118.42 -0.000327273
118.43 0.00103276
118.44 0.00198129
118.45 0.00246524
118.46 0.00251837
118.47 0.00217164
118.48 0.00148091
118.49 0.000523365
118.5 -0.000607298
118.51 -0.00180655
118.52 -0.00296534
118.53 -0.00396156
118.54 -0.00469177
118.55 -0.00508223
118.56 -0.00507504
118.57 -0.00463726
118.58 -0.00376341
118.59 -0.00247634
118.6 -0.000826594
118.61 0.00111078
118.62 0.00324209
118.63 0.00542523
118.64 0.00753313
118.65 0.00943645
118.66 0.0110106
118.67 0.0121426
118.68 0.0127377
118.69 0.0127252
118.7 0.0120326
118.71 0.0106496
118.72 0.0086386
118.73 0.00606281
118.74 0.00301577
118.75 -0.000382296
118.76 -0.00398975
118.77 -0.00764997
118.78 -0.0111986
118.79 -0.0144346
118.8 -0.0172112
118.81 -0.0193961
118.82 -0.0208785
118.83 -0.0215783
118.84 -0.0214496
118.85 -0.0204839
118.86 -0.0187109
118.87 -0.0161791
118.88 -0.0129837
118.89 -0.00931067
118.9 -0.00532164
118.91 -0.00119382
118.92 0.00288813
118.93 0.0067405
118.94 0.010189
118.95 0.013077
118.96 0.0152173
118.97 0.0165343
118.98 0.01699
118.99 0.0165676
119 0.0152907
119.01 0.0132216
119.02 0.0104589
119.03 0.00713234
119.04 0.00339423
119.05 -0.000578292
119.06 -0.0045699
119.07 -0.00839687
119.08 -0.0118848
119.09 -0.0148766
119.1 -0.0172399
119.11 -0.0188724
119.12 -0.0197074
119.13 -0.0196722
119.14 -0.018794
119.15 -0.0171643
119.16 -0.014875
119.17 -0.0120485
119.18 -0.00883105
119.19 -0.00538603
119.2 -0.00188586
119.21 0.0014962
119.22 0.00455387
119.23 0.00715447
119.24 0.00917709
119.25 0.0105303
119.26 0.0111565
119.27 0.0110347
119.28 0.0101813
119.29 0.00864875
119.3 0.00650532
119.31 0.00387467
119.32 0.000932845
119.33 -0.00216227
119.34 -0.00524591
119.35 -0.00815443
119.36 -0.0107333
119.37 -0.0128445
119.38 -0.0143735
119.39 -0.0151783
119.4 -0.0152474
119.41 -0.0145839
119.42 -0.013216
119.43 -0.0112068
119.44 -0.00865175
119.45 -0.00567368
119.46 -0.00241721
119.47 0.000956819
119.48 0.00426091
119.49 0.00732374
119.5 0.00999148
119.51 0.0121283
119.52 0.013623
119.53 0.014394
119.54 0.0143935
119.55 0.0136097
119.56 0.0120245
119.57 0.0097326
119.58 0.00685929
119.59 0.00353255
119.6 -9.835e-05
119.61 -0.0038697
119.62 -0.00761091
119.63 -0.0111524
119.64 -0.0143297
119.65 -0.0169454
119.66 -0.0189178
119.67 -0.0201613
119.68 -0.0206236
119.69 -0.020288
119.7 -0.0191743
119.71 -0.0173373
119.72 -0.0148645
119.73 -0.0118541
119.74 -0.00846418
119.75 -0.00487666
119.76 -0.00125616
119.77 0.00223316
119.78 0.00543518
119.79 0.00820882
119.8 0.0104344
119.81 0.0120189
119.82 0.012837
119.83 0.0129169
119.84 0.0122777
119.85 0.0109652
119.86 0.00905564
119.87 0.00665149
119.88 0.00387624
119.89 0.0008684
119.9 -0.00222314
119.91 -0.00523189
119.92 -0.00801434
119.93 -0.0104453
119.94 -0.0124195
119.95 -0.0138562
119.96 -0.0147024
119.97 -0.0149354
119.98 -0.0145625
119.99 -0.0135855
120 -0.012105
120.01 -0.0102271
120.02 -0.0080613
120.03 -0.0057287
120.04 -0.00335551
120.05 -0.00106678
120.06 0.00101985
120.07 0.00279387
120.08 0.0041372
120.09 0.00501735
120.1 0.00540196
120.11 0.00528552
120.12 0.00468914
120.13 0.003659
120.14 0.00226355
120.15 0.000589613
120.16 -0.00126598
120.17 -0.00317852
120.18 -0.0050311
120.19 -0.00671847
120.2 -0.00814596
120.21 -0.00923428
120.22 -0.00992354
120.23 -0.0101762
120.24 -0.00997901
120.25 -0.00930525
120.26 -0.00823787
120.27 -0.0068388
120.28 -0.00518745
120.29 -0.00337653
120.3 -0.00150713
120.31 0.000316739
120.32 0.00199362
120.33 0.0034173
120.34 0.00449413
120.35 0.00517937
120.36 0.0054355
120.37 0.0052481
120.38 0.0046266
120.39 0.00360376
120.4 0.00223399
120.41 0.000590485
120.42 -0.00124516
120.43 -0.00315235
120.44 -0.00502399
120.45 -0.00675726
120.46 -0.00825615
120.47 -0.00943632
120.48 -0.0102295
120.49 -0.0105868
120.5 -0.0104707
120.51 -0.00985794
120.52 -0.00880758
120.53 -0.00736764
120.54 -0.0056059
120.55 -0.00360649
120.56 -0.00146569
120.57 0.000712822
120.58 0.0028231
120.59 0.0047452
120.6 0.00638062
120.61 0.00765651
120.62 0.00851167
120.63 0.00890523
120.64 0.00881842
120.65 0.0082553
120.66 0.0072424
120.67 0.00582465
120.68 0.00404977
120.69 0.00203613
120.7 -0.000122055
120.71 -0.0023251
120.72 -0.00447265
120.73 -0.00646827
120.74 -0.00822391
120.75 -0.00966371
120.76 -0.0107074
120.77 -0.0113096
120.78 -0.01147
120.79 -0.0111902
120.8 -0.0104908
120.81 -0.00941014
120.82 -0.00800185
120.83 -0.00633189
120.84 -0.00447514
120.85 -0.00250964
120.86 -0.000532071
120.87 0.00137873
120.88 0.00315116
120.89 0.00472288
120.9 0.00604298
120.91 0.00707347
120.92 0.00779014
120.93 0.00817238
120.94 0.00821491
120.95 0.0079556
120.96 0.00742178
120.97 0.00664843
120.98 0.00567591
120.99 0.0045476
121 0.00330762
121.01 0.00199877
121.02 0.000661294
121.03 -0.000665281
121.04 -0.00195175
121.05 -0.00317529
121.06 -0.0043188
121.07 -0.00537042
121.08 -0.00632273
121.09 -0.00717182
121.1 -0.00791445
121.11 -0.0085439
121.12 -0.00906839
121.13 -0.00948726
121.14 -0.00979873
121.15 -0.00999968
121.16 -0.0100859
121.17 -0.0100526
121.18 -0.00989487
121.19 -0.00960181
121.2 -0.00917413
121.21 -0.00861931
121.22 -0.00794425
121.23 -0.00716107
121.24 -0.00628751
121.25 -0.00534703
121.26 -0.00436851
121.27 -0.0033855
121.28 -0.00244171
121.29 -0.00157602
121.3 -0.000826908
121.31 -0.000230157
121.32 0.000183305
121.33 0.000389491
121.34 0.00037323
121.35 0.000129676
121.36 -0.000342705
121.37 -0.00102469
121.38 -0.00187164
121.39 -0.00284045
121.4 -0.00387933
121.41 -0.00493006
121.42 -0.00593086
121.43 -0.00681953
121.44 -0.00753685
121.45 -0.00800865
121.46 -0.00820416
121.47 -0.00809963
121.48 -0.00768326
121.49 -0.00696
121.5 -0.00595208
121.51 -0.00469862
121.52 -0.00325426
121.53 -0.00168596
121.54 -7.9196e-05
121.55 0.00147305
121.56 0.00288501
121.57 0.00407497
121.58 0.00496995
121.59 0.0055101
121.6 0.00565265
121.61 0.00537499
121.62 0.00465161
121.63 0.00352584
121.64 0.00206248
121.65 0.000334716
121.66 -0.00156605
121.67 -0.00353431
121.68 -0.00545547
121.69 -0.00721164
121.7 -0.00868423
121.71 -0.00972857
121.72 -0.0102841
121.73 -0.010287
121.74 -0.00969973
121.75 -0.00851465
121.76 -0.00675545
121.77 -0.00447753
121.78 -0.00176651
121.79 0.00127329
121.8 0.00448572
121.81 0.00770133
121.82 0.0107568
121.83 0.0134888
121.84 0.0157417
121.85 0.0173762
121.86 0.018276
121.87 0.0183548
121.88 0.0174839
121.89 0.0157277
121.9 0.0131306
121.91 0.00977194
121.92 0.00576879
121.93 0.00127194
121.94 -0.0035403
121.95 -0.00846966
121.96 -0.0132963
121.97 -0.0177759
121.98 -0.0217162
121.99 -0.0249374
122 -0.0272882
122.01 -0.0286534
122.02 -0.0289593
122.03 -0.0281784
122.04 -0.0263304
122.05 -0.0234188
122.06 -0.0196235
122.07 -0.0151271
122.08 -0.010122
122.09 -0.00482323
122.1 0.000540731
122.11 0.00573846
122.12 0.010546
122.13 0.0147435
122.14 0.0180898
122.15 0.0204988
122.16 0.021879
122.17 0.0221859
122.18 0.0214235
122.19 0.0196437
122.2 0.0169438
122.21 0.0134614
122.22 0.00934432
122.23 0.00482604
122.24 0.000142853
122.25 -0.00448843
122.26 -0.00885822
122.27 -0.0127739
122.28 -0.0160683
122.29 -0.0186074
122.3 -0.0202944
122.31 -0.0209929
122.32 -0.0207848
122.33 -0.0197146
122.34 -0.0178665
122.35 -0.015359
122.36 -0.0123387
122.37 -0.00897206
122.38 -0.00543665
122.39 -0.00192011
122.4 0.001383
122.41 0.00432241
122.42 0.00677074
122.43 0.00863112
122.44 0.0098411
122.45 0.0103748
122.46 0.0102432
122.47 0.00949216
122.48 0.00816412
122.49 0.00641196
122.5 0.00437039
122.51 0.00217713
122.52 -2.74796e-05
122.53 -0.00210833
122.54 -0.00394295
122.55 -0.00542811
122.56 -0.00647292
122.57 -0.00700452
122.58 -0.00704162
122.59 -0.00660387
122.6 -0.00574047
122.61 -0.00452678
122.62 -0.00305958
122.63 -0.00145118
122.64 0.000177327
122.65 0.00168879
122.66 0.00295881
122.67 0.00389066
122.68 0.00440444
122.69 0.00444523
122.7 0.00398647
122.71 0.00303172
122.72 0.00161475
122.73 -0.000205011
122.74 -0.00235183
122.75 -0.00467993
122.76 -0.00706301
122.77 -0.00936823
122.78 -0.0114633
122.79 -0.0132239
122.8 -0.0145401
122.81 -0.015323
122.82 -0.015478
122.83 -0.0149742
122.84 -0.0138448
122.85 -0.0121279
122.86 -0.00989226
122.87 -0.00723416
122.88 -0.00427271
122.89 -0.00114415
122.9 0.00200481
122.91 0.00499968
122.92 0.0076951
122.93 0.00996182
122.94 0.0116896
122.95 0.0127935
122.96 0.0132181
122.97 0.0129404
122.98 0.0119707
122.99 0.0103332
123 0.00809913
123.01 0.00541493
123.02 0.002409
123.03 -0.000775578
123.04 -0.0039879
123.05 -0.00707643
123.06 -0.00989619
123.07 -0.0123155
123.08 -0.0141782
123.09 -0.015419
123.1 -0.0159974
123.11 -0.0158931
123.12 -0.0151179
123.13 -0.0137146
123.14 -0.0117544
123.15 -0.00933378
123.16 -0.00656536
123.17 -0.00358261
123.18 -0.000550261
123.19 0.00239189
123.2 0.00511052
123.21 0.0074847
123.22 0.00941109
123.23 0.0108082
123.24 0.0116195
123.25 0.01178
123.26 0.0113041
123.27 0.0102457
123.28 0.00866045
123.29 0.00662489
123.3 0.00423278
123.31 0.00159024
123.32 -0.00118927
123.33 -0.00398987
123.34 -0.00668062
123.35 -0.00915902
123.36 -0.0113356
123.37 -0.0131372
123.38 -0.014509
123.39 -0.0154162
123.4 -0.0158443
123.41 -0.0157985
123.42 -0.0152855
123.43 -0.0143483
123.44 -0.0130669
123.45 -0.0115077
123.46 -0.00974331
123.47 -0.00784906
123.48 -0.00589986
123.49 -0.00396707
123.5 -0.00211583
123.51 -0.000418172
123.52 0.00108593
123.53 0.00236498
123.54 0.00339694
123.55 0.00417079
123.56 0.00468578
123.57 0.00495037
123.58 0.00498081
123.59 0.00479477
123.6 0.00441517
123.61 0.00388681
123.62 0.00324151
123.63 0.00251101
123.64 0.00172596
123.65 0.000915148
123.66 0.000104976
123.67 -0.000680852
123.68 -0.00141722
123.69 -0.00208612
123.7 -0.00267398
123.71 -0.00316829
123.72 -0.00355876
123.73 -0.00383724
123.74 -0.00399771
123.75 -0.00403632
123.76 -0.00395031
123.77 -0.00373239
123.78 -0.00339778
123.79 -0.00295476
123.8 -0.00241521
123.81 -0.00179479
123.82 -0.00111297
123.83 -0.000392799
123.84 0.00033951
123.85 0.00105279
123.86 0.00171292
123.87 0.00229014
123.88 0.00275507
123.89 0.00308109
123.9 0.00324582
123.91 0.00323265
123.92 0.00303201
123.93 0.00264249
123.94 0.00205688
123.95 0.0013105
123.96 0.000432521
123.97 -0.000540225
123.98 -0.00156358
123.99 -0.00258769
124 -0.00355907
124.01 -0.00442295
124.02 -0.00511854
124.03 -0.00558621
124.04 -0.00579566
124.05 -0.00571653
124.06 -0.00533063
124.07 -0.00463354
124.08 -0.00363572
124.09 -0.00236289
124.1 -0.000855711
124.11 0.000839558
124.12 0.0026384
124.13 0.00445932
124.14 0.0062187
124.15 0.00783094
124.16 0.00921228
124.17 0.0102847
124.18 0.01098
124.19 0.0112338
124.2 0.0109787
124.21 0.0102327
124.22 0.00900097
124.23 0.00731035
124.24 0.00520829
124.25 0.0027618
124.26 5.50618e-05
124.27 -0.00281364
124.28 -0.00573194
124.29 -0.00857062
124.3 -0.0112133
124.31 -0.0135503
124.32 -0.0154817
124.33 -0.016922
124.34 -0.0178037
124.35 -0.0180806
124.36 -0.017728
124.37 -0.0166961
124.38 -0.0150753
124.39 -0.0129223
124.4 -0.0103151
124.41 -0.00735021
124.42 -0.00413846
124.43 -0.000800419
124.44 0.00253842
124.45 0.00574212
124.46 0.00867511
124.47 0.0112386
124.48 0.0133422
124.49 0.0149152
124.5 0.0159085
124.51 0.0162968
124.52 0.016079
124.53 0.0152779
124.54 0.0138997
124.55 0.0120564
124.56 0.00983964
124.57 0.00734661
124.58 0.00468185
124.59 0.0019527
124.6 -0.000735335
124.61 -0.003283
124.62 -0.00559277
124.63 -0.00757055
124.64 -0.00917787
124.65 -0.0103786
124.66 -0.011156
124.67 -0.0115123
124.68 -0.0114681
124.69 -0.0110598
124.7 -0.010338
124.71 -0.00935155
124.72 -0.00818666
124.73 -0.00692221
124.74 -0.00562931
124.75 -0.00437466
124.76 -0.00321754
124.77 -0.00220729
124.78 -0.00138139
124.79 -0.000766849
124.8 -0.000389673
124.81 -0.000226657
124.82 -0.000259997
124.83 -0.000461431
124.84 -0.000794382
124.85 -0.00121645
124.86 -0.0016821
124.87 -0.00214544
124.88 -0.00255844
124.89 -0.00287873
124.9 -0.00307851
124.91 -0.00313664
124.92 -0.00304176
124.93 -0.00279267
124.94 -0.00239811
124.95 -0.00187596
124.96 -0.00125201
124.97 -0.000555135
124.98 0.000169176
124.99 0.000882722
125 0.00154859
125.01 0.0021331
125.02 0.00260782
125.03 0.00295121
125.04 0.0031499
125.05 0.00319433
125.06 0.0030877
125.07 0.0028546
125.08 0.0025187
125.09 0.00211018
125.1 0.001664
125.11 0.00121785
125.12 0.000810015
125.13 0.000477099
125.14 0.000262035
125.15 0.000187204
125.16 0.000267808
125.17 0.000512097
125.18 0.000918539
125.19 0.00147565
125.2 0.00216234
125.21 0.00294876
125.22 0.00379801
125.23 0.00466316
125.24 0.00549308
125.25 0.00624022
125.26 0.00685886
125.27 0.00730739
125.28 0.00755059
125.29 0.00756143
125.3 0.00732271
125.31 0.0068131
125.32 0.00604625
125.33 0.00505024
125.34 0.00385487
125.35 0.0024994
125.36 0.00103087
125.37 -0.000497909
125.38 -0.00203065
125.39 -0.00350959
125.4 -0.00486468
125.41 -0.0060513
125.42 -0.00702606
125.43 -0.00775436
125.44 -0.0082118
125.45 -0.00838524
125.46 -0.00827318
125.47 -0.00788568
125.48 -0.00723401
125.49 -0.00635267
125.5 -0.00529511
125.51 -0.00410784
125.52 -0.00284093
125.53 -0.00154555
125.54 -0.000271728
125.55 0.000933972
125.56 0.00203041
125.57 0.00296949
125.58 0.00373527
125.59 0.00431538
125.6 0.00470545
125.61 0.00491036
125.62 0.00494348
125.63 0.00482547
125.64 0.0045827
125.65 0.00424373
125.66 0.00384208
125.67 0.00341536
125.68 0.00299259
125.69 0.00259849
125.7 0.00225203
125.71 0.00196539
125.72 0.00174341
125.73 0.00158341
125.74 0.001478
125.75 0.00140639
125.76 0.00134511
125.77 0.00126904
125.78 0.00115196
125.79 0.000968579
125.8 0.000696509
125.81 0.000318197
125.82 -0.000178979
125.83 -0.000805942
125.84 -0.00154531
125.85 -0.00238021
125.86 -0.0032849
125.87 -0.00422553
125.88 -0.00516153
125.89 -0.00604741
125.9 -0.00683487
125.91 -0.00746513
125.92 -0.00788839
125.93 -0.0080715
125.94 -0.00798304
125.95 -0.00760191
125.96 -0.00691911
125.97 -0.00593892
125.98 -0.00467955
125.99 -0.00317308
126 -0.00145144
126.01 0.000404101
126.02 0.0023246
126.03 0.00423537
126.04 0.00605859
126.05 0.00771675
126.06 0.00913607
126.07 0.01025
126.08 0.0109877
126.09 0.0112946
126.1 0.011169
126.11 0.0106057
126.12 0.00961755
126.13 0.00823591
126.14 0.00650925
126.15 0.0045016
126.16 0.0022901
126.17 -3.97936e-05
126.18 -0.00237833
126.19 -0.0046279
126.2 -0.00669567
126.21 -0.00849565
126.22 -0.00995244
126.23 -0.0110045
126.24 -0.0116071
126.25 -0.0117235
126.26 -0.0113239
126.27 -0.0104618
126.28 -0.0091747
126.29 -0.00751792
126.3 -0.00556164
126.31 -0.00338808
126.32 -0.00108787
126.33 0.00124398
126.34 0.00350251
126.35 0.0055885
126.36 0.00742311
126.37 0.00893701
126.38 0.0100756
126.39 0.0108011
126.4 0.0110938
126.41 0.0109524
126.42 0.0103917
126.43 0.00941835
126.44 0.00812086
126.45 0.00656269
126.46 0.00481566
126.47 0.00295658
126.48 0.00106373
126.49 -0.000786679
126.5 -0.00252372
126.51 -0.00407428
126.52 -0.00538022
126.53 -0.00641417
126.54 -0.00715336
126.55 -0.00758902
126.56 -0.00772594
126.57 -0.00758139
126.58 -0.00718355
126.59 -0.00656947
126.6 -0.00577215
126.61 -0.0048564
126.62 -0.00387253
126.63 -0.00286739
126.64 -0.00188386
126.65 -0.000959036
126.66 -0.00012285
126.67 0.000602815
126.68 0.0012007
126.69 0.00166145
126.7 0.0019975
126.71 0.00221952
126.72 0.00234317
126.73 0.0023875
126.74 0.00237332
126.75 0.00232155
126.76 0.00225167
126.77 0.00218131
126.78 0.00212429
126.79 0.00208817
126.8 0.00207583
126.81 0.00208568
126.82 0.0021122
126.83 0.00214671
126.84 0.00217847
126.85 0.00219542
126.86 0.00218347
126.87 0.0021346
126.88 0.00204228
126.89 0.00190351
126.9 0.00171928
126.91 0.00149472
126.92 0.0012389
126.93 0.000964281
126.94 0.000686617
126.95 0.000424583
126.96 0.000194881
126.97 1.2723e-05
126.98 -0.000109376
126.99 -0.000162736
127 -0.000143422
127.01 -5.28725e-05
127.02 0.000101845
127.03 0.000311308
127.04 0.000551144
127.05 0.000798946
127.06 0.00103001
127.07 0.00121883
127.08 0.00134089
127.09 0.00137439
127.1 0.00130206
127.11 0.00110806
127.12 0.000786722
127.13 0.00035107
127.14 -0.000183993
127.15 -0.000795217
127.16 -0.00145181
127.17 -0.00211676
127.18 -0.00274857
127.19 -0.00330347
127.2 -0.00372525
127.21 -0.00397709
127.22 -0.00402722
127.23 -0.00385009
127.24 -0.00343047
127.25 -0.00276501
127.26 -0.00186317
127.27 -0.000747573
127.28 0.000549278
127.29 0.0019807
127.3 0.00347548
127.31 0.0049683
127.32 0.00639021
127.33 0.00767206
127.34 0.00874792
127.35 0.00955858
127.36 0.0100547
127.37 0.0101769
127.38 0.00991364
127.39 0.00927595
127.4 0.00828048
127.41 0.00696089
127.42 0.00536661
127.43 0.00356072
127.44 0.00161719
127.45 -0.000382396
127.46 -0.00234241
127.47 -0.00417563
127.48 -0.00580444
127.49 -0.00716091
127.5 -0.00819023
127.51 -0.00885342
127.52 -0.00912923
127.53 -0.00901525
127.54 -0.00851233
127.55 -0.00766056
127.56 -0.00653151
127.57 -0.00519107
127.58 -0.00371377
127.59 -0.00217866
127.6 -0.000664933
127.61 0.000752416
127.62 0.00200677
127.63 0.00302155
127.64 0.0037733
127.65 0.00424616
127.66 0.00444075
127.67 0.00437601
127.68 0.00408785
127.69 0.00362695
127.7 0.00305554
127.71 0.00244466
127.72 0.00187691
127.73 0.0014247
127.74 0.00115113
127.75 0.00110756
127.76 0.00133002
127.77 0.00183632
127.78 0.00262421
127.79 0.00367067
127.8 0.00494301
127.81 0.00636068
127.82 0.00783797
127.83 0.00928374
127.84 0.0106012
127.85 0.0116935
127.86 0.0124689
127.87 0.0128469
127.88 0.0127552
127.89 0.0121152
127.9 0.0109507
127.91 0.00927506
127.92 0.00712886
127.93 0.00457943
127.94 0.00171841
127.95 -0.00134184
127.96 -0.00447306
127.97 -0.00752521
127.98 -0.0103405
127.99 -0.012786
128 -0.0147373
128.01 -0.0160891
128.02 -0.01676
128.03 -0.0166977
128.04 -0.0158824
128.05 -0.014328
128.06 -0.0120257
128.07 -0.00913251
128.08 -0.00576562
128.09 -0.00206524
128.1 0.0018113
128.11 0.00569661
128.12 0.00942093
128.13 0.01282
128.14 0.0157191
128.15 0.0179645
128.16 0.0194871
128.17 0.0202226
128.18 0.0201424
128.19 0.0192546
128.2 0.0176038
128.21 0.0152687
128.22 0.0123582
128.23 0.00898412
128.24 0.00534292
128.25 0.0016067
128.26 -0.00205808
128.27 -0.00549138
128.28 -0.00854703
128.29 -0.0110993
128.3 -0.0130484
128.31 -0.0143083
128.32 -0.0148076
128.33 -0.0146
128.34 -0.0137228
128.35 -0.0122429
128.36 -0.0102527
128.37 -0.00786477
128.38 -0.00520543
128.39 -0.00240809
128.4 0.000385811
128.41 0.00303692
128.42 0.00543576
128.43 0.00749196
128.44 0.00913846
128.45 0.0103339
128.46 0.0110636
128.47 0.0113392
128.48 0.0111935
128.49 0.0106622
128.5 0.00985756
128.51 0.00886603
128.52 0.00777844
128.53 0.00668406
128.54 0.00566513
128.55 0.00479195
128.56 0.00411878
128.57 0.00369265
128.58 0.00352706
128.59 0.00359894
128.6 0.00387681
128.61 0.00431199
128.62 0.0048422
128.63 0.00539606
128.64 0.00589808
128.65 0.00627403
128.66 0.00643444
128.67 0.00633591
128.68 0.00594376
128.69 0.00524137
128.7 0.00423347
128.71 0.00294668
128.72 0.0014286
128.73 -0.000254298
128.74 -0.00201959
128.75 -0.0037623
128.76 -0.00537866
128.77 -0.0067708
128.78 -0.00784803
128.79 -0.00853241
128.8 -0.00876368
128.81 -0.00850332
128.82 -0.0077375
128.83 -0.00644661
128.84 -0.00470106
128.85 -0.00258232
128.86 -0.000181905
128.87 0.0023914
128.88 0.00501686
128.89 0.00756784
128.9 0.00991833
128.91 0.0119426
128.92 0.0134996
128.93 0.0145351
128.94 0.0149936
128.95 0.0148475
128.96 0.0140992
128.97 0.0127814
128.98 0.010955
128.99 0.00870708
129 0.00613577
129.01 0.00338699
129.02 0.000607639
129.03 -0.00206618
129.04 -0.00450443
129.05 -0.00658976
129.06 -0.00822358
129.07 -0.00933107
129.08 -0.0098648
129.09 -0.00975338
129.1 -0.00907221
129.11 -0.00787144
129.12 -0.00622771
129.13 -0.00423995
129.14 -0.002024
129.15 0.000293689
129.16 0.00258284
129.17 0.00470524
129.18 0.00652725
129.19 0.00796233
129.2 0.00893735
129.21 0.00940579
129.22 0.00935006
129.23 0.00878231
129.24 0.00774351
129.25 0.00630116
129.26 0.00452926
129.27 0.00256773
129.28 0.000542085
129.29 -0.00142372
129.3 -0.00320947
129.31 -0.00470532
129.32 -0.00581789
129.33 -0.00647537
129.34 -0.00661903
129.35 -0.00620841
129.36 -0.00529752
129.37 -0.00393304
129.38 -0.0021875
129.39 -0.000155312
129.4 0.00205229
129.41 0.00431325
129.42 0.00650131
129.43 0.00847282
129.44 0.0101096
129.45 0.0113245
129.46 0.0120461
129.47 0.0122296
129.48 0.0118589
129.49 0.0109482
129.5 0.00954099
129.51 0.0077055
129.52 0.00552277
129.53 0.00314606
129.54 0.00070482
129.55 -0.00166653
129.56 -0.00383549
129.57 -0.00567827
129.58 -0.00708624
129.59 -0.00797152
129.6 -0.00824183
129.61 -0.00786424
129.62 -0.00687063
129.63 -0.0052962
129.64 -0.00320538
129.65 -0.000688748
129.66 0.00214124
129.67 0.00515559
129.68 0.00821495
129.69 0.0111552
129.7 0.0138337
129.71 0.0161243
129.72 0.0179172
129.73 0.0191249
129.74 0.0196856
129.75 0.0195666
129.76 0.0187648
129.77 0.0172873
129.78 0.0151809
129.79 0.0125715
129.8 0.00956486
129.81 0.00628167
129.82 0.00285218
129.83 -0.000589797
129.84 -0.00391276
129.85 -0.00699312
129.86 -0.00968805
129.87 -0.0119156
129.88 -0.0136171
129.89 -0.0147492
129.9 -0.0152933
129.91 -0.0152547
129.92 -0.0146618
129.93 -0.0135637
129.94 -0.0120212
129.95 -0.0101027
129.96 -0.00793315
129.97 -0.00560866
129.98 -0.00322503
129.99 -0.000873891
130 0.00136089
130.01 0.00340627
130.02 0.00520236
130.03 0.00668568
130.04 0.00783077
130.05 0.00863873
130.06 0.00911392
130.07 0.00927396
130.08 0.00914776
130.09 0.00877336
130.1 0.0081954
130.11 0.00746248
130.12 0.00662009
130.13 0.00573094
130.14 0.00484079
130.15 0.00399046
130.16 0.00321464
130.17 0.00254104
130.18 0.00198993
130.19 0.00157415
130.2 0.00130499
130.21 0.00118226
130.22 0.0011901
130.23 0.00131546
130.24 0.00154149
130.25 0.00184851
130.26 0.00221502
130.27 0.00261852
130.28 0.0030364
130.29 0.00344425
130.3 0.00382002
130.31 0.00414517
130.32 0.00440331
130.33 0.00458065
130.34 0.00466643
130.35 0.00465312
130.36 0.00453674
130.37 0.00431454
130.38 0.00398668
130.39 0.00356898
130.4 0.00307412
130.41 0.00251866
130.42 0.0019227
130.43 0.00130948
130.44 0.000704671
130.45 0.00013559
130.46 -0.000363912
130.47 -0.000765967
130.48 -0.00104778
130.49 -0.00118814
130.5 -0.00117077
130.51 -0.000985547
130.52 -0.000629546
130.53 -0.000107874
130.54 0.000567103
130.55 0.00137987
130.56 0.00228546
130.57 0.0032445
130.58 0.00421188
130.59 0.00513858
130.6 0.00597385
130.61 0.0066676
130.62 0.00717301
130.63 0.00743618
130.64 0.00742265
130.65 0.00712397
130.66 0.00653393
130.67 0.00566034
130.68 0.00452549
130.69 0.00316592
130.7 0.00163147
130.71 -1.64986e-05
130.72 -0.0017045
130.73 -0.00334551
130.74 -0.00486048
130.75 -0.00617298
130.76 -0.00721301
130.77 -0.00792083
130.78 -0.00825038
130.79 -0.0081723
130.8 -0.00766242
130.81 -0.00672295
130.82 -0.00541454
130.83 -0.00379171
130.84 -0.00192634
130.85 9.53875e-05
130.86 0.00217692
130.87 0.00421592
130.88 0.0061093
130.89 0.00773411
130.9 0.00900759
130.91 0.00986572
130.92 0.0102591
130.93 0.0101617
130.94 0.0095727
130.95 0.0085175
130.96 0.00704705
130.97 0.00523175
130.98 0.00316438
130.99 0.000984262
131 -0.00118529
131.01 -0.00321813
131.02 -0.00499184
131.03 -0.0063943
131.04 -0.00732993
131.05 -0.0077252
131.06 -0.00749854
131.07 -0.00664758
131.08 -0.00521696
131.09 -0.00326117
131.1 -0.000864585
131.11 0.00186199
131.12 0.00478628
131.13 0.00776073
131.14 0.010629
131.15 0.0131971
131.16 0.0153319
131.17 0.0169055
131.18 0.0178145
131.19 0.0179858
131.2 0.0173809
131.21 0.0159991
131.22 0.0138781
131.23 0.0110705
131.24 0.00769838
131.25 0.00394261
131.26 -2.83838e-05
131.27 -0.00403217
131.28 -0.00788099
131.29 -0.0113908
131.3 -0.0143904
131.31 -0.0167299
131.32 -0.0182177
131.33 -0.01882
131.34 -0.0185117
131.35 -0.0172999
131.36 -0.0152349
131.37 -0.0124077
131.38 -0.00894581
131.39 -0.0050077
131.4 -0.000772687
131.41 0.00354438
131.42 0.00772462
131.43 0.0115747
131.44 0.0149181
131.45 0.0176033
131.46 0.0195116
131.47 0.0205622
131.48 0.0207163
131.49 0.0199234
131.5 0.0182756
131.51 0.0158958
131.52 0.0129151
131.53 0.00949186
131.54 0.0058035
131.55 0.00203719
131.56 -0.00161948
131.57 -0.00498315
131.58 -0.00784689
131.59 -0.0101102
131.6 -0.0116799
131.61 -0.0125012
131.62 -0.0125594
131.63 -0.0118802
131.64 -0.0105278
131.65 -0.00860044
131.66 -0.0062104
131.67 -0.00352887
131.68 -0.00073748
131.69 0.00199984
131.7 0.00452661
131.71 0.00670224
131.72 0.00840954
131.73 0.00956087
131.74 0.0101027
131.75 0.00996386
131.76 0.00922564
131.77 0.00795524
131.78 0.00624781
131.79 0.0042238
131.8 0.002022
131.81 -0.000208508
131.82 -0.0023169
131.83 -0.00414535
131.84 -0.00554243
131.85 -0.00642571
131.86 -0.0067258
131.87 -0.00640752
131.88 -0.00547211
131.89 -0.00395735
131.9 -0.00193573
131.91 0.000489269
131.92 0.00319784
131.93 0.00601134
131.94 0.00876549
131.95 0.0113018
131.96 0.0134711
131.97 0.0151414
131.98 0.0162055
131.99 0.0165871
132 0.0162314
132.01 0.015098
132.02 0.0132863
132.03 0.0108767
132.04 0.00798211
132.05 0.00474176
132.06 0.00131439
132.07 -0.00212995
132.08 -0.00541876
132.09 -0.008358
132.1 -0.0107895
132.11 -0.0126045
132.12 -0.0137129
132.13 -0.014061
132.14 -0.0136333
132.15 -0.0124539
132.16 -0.0105853
132.17 -0.00812303
132.18 -0.00516819
132.19 -0.00192779
132.2 0.00143034
132.21 0.00473403
132.22 0.00781566
132.23 0.0105208
132.24 0.0127161
132.25 0.0142963
132.26 0.0151584
132.27 0.0152615
132.28 0.0146543
132.29 0.0133874
132.3 0.011546
132.31 0.00924553
132.32 0.0066253
132.33 0.00384099
132.34 0.00105639
132.35 -0.00153902
132.36 -0.00379151
132.37 -0.00557241
132.38 -0.00677728
132.39 -0.00733348
132.4 -0.00720405
132.41 -0.00638954
132.42 -0.00492809
132.43 -0.00288091
132.44 -0.000350037
132.45 0.00248973
132.46 0.0054839
132.47 0.00846852
132.48 0.0112787
132.49 0.0137571
132.5 0.015762
132.51 0.0171747
132.52 0.0178565
132.53 0.0177777
132.54 0.0169479
132.55 0.0153954
132.56 0.013185
132.57 0.010415
132.58 0.00721239
132.59 0.00372679
132.6 0.000123728
132.61 -0.00340339
132.62 -0.00667784
132.63 -0.0095421
132.64 -0.0118579
132.65 -0.0135126
132.66 -0.0144248
132.67 -0.0145481
132.68 -0.013873
132.69 -0.0123916
132.7 -0.0101865
132.71 -0.00739492
132.72 -0.00414775
132.73 -0.000596331
132.74 0.00309452
132.75 0.00675412
132.76 0.0102138
132.77 0.0133143
132.78 0.015857
132.79 0.0177606
132.8 0.0189433
132.81 0.0193537
132.82 0.0189746
132.83 0.0178234
132.84 0.0159509
132.85 0.013438
132.86 0.010378
132.87 0.00690753
132.88 0.0032034
132.89 -0.000581268
132.9 -0.00429324
132.91 -0.00778572
132.92 -0.0109244
132.93 -0.0135929
132.94 -0.015697
132.95 -0.0171177
132.96 -0.0178499
132.97 -0.0179007
132.98 -0.0172925
132.99 -0.0160734
133 -0.0143145
133.01 -0.0121056
133.02 -0.00955094
133.03 -0.00676219
133.04 -0.00386367
133.05 -0.000987148
133.06 0.00175872
133.07 0.00427671
133.08 0.00648457
133.09 0.00831776
133.1 0.00973136
133.11 0.0107009
133.12 0.0111969
133.13 0.0112502
133.14 0.0109137
133.15 0.0102392
133.16 0.00928968
133.17 0.00813599
133.18 0.00685308
133.19 0.00551622
133.2 0.00419789
133.21 0.00297627
133.22 0.00190218
133.23 0.001017
133.24 0.000348482
133.25 -8.99618e-05
133.26 -0.0002993
133.27 -0.000294225
133.28 -0.000101854
133.29 0.000244578
133.3 0.000693323
133.31 0.00118491
133.32 0.00166545
133.33 0.00208233
133.34 0.00238718
133.35 0.00253849
133.36 0.00250402
133.37 0.00226272
133.38 0.00178851
133.39 0.00110436
133.4 0.000234024
133.41 -0.000788539
133.42 -0.00191812
133.43 -0.00310017
133.44 -0.00427323
133.45 -0.00537174
133.46 -0.00632322
133.47 -0.00704885
133.48 -0.00750173
133.49 -0.00763441
133.5 -0.00741162
133.51 -0.00681248
133.52 -0.00583217
133.53 -0.00448295
133.54 -0.00279438
133.55 -0.000797349
133.56 0.00142557
133.57 0.00378858
133.58 0.00620374
133.59 0.00857674
133.6 0.0108108
133.61 0.0128106
133.62 0.014487
133.63 0.0157547
133.64 0.0165106
133.65 0.016745
133.66 0.0164346
133.67 0.0155782
133.68 0.0141974
133.69 0.0123365
133.7 0.0100609
133.71 0.00745535
133.72 0.00461435
133.73 0.00166749
133.74 -0.00125561
133.75 -0.00403379
133.76 -0.00655043
133.77 -0.00869871
133.78 -0.0103864
133.79 -0.0115405
133.8 -0.0121102
133.81 -0.0120144
133.82 -0.0113133
133.83 -0.0100434
133.84 -0.00826473
133.85 -0.00606081
133.86 -0.00353447
133.87 -0.000803567
133.88 0.00200435
133.89 0.00475089
133.9 0.0072883
133.91 0.00950297
133.92 0.0112926
133.93 0.0125752
133.94 0.0132932
133.95 0.0134163
133.96 0.0129428
133.97 0.0118999
133.98 0.0103097
133.99 0.00829302
134 0.00596474
134.01 0.00344511
134.02 0.000863258
134.03 -0.00164917
134.04 -0.00396461
134.05 -0.00596592
134.06 -0.00754183
134.07 -0.0085813
134.08 -0.00906885
134.09 -0.00898633
134.1 -0.00834542
134.11 -0.00718711
134.12 -0.00557963
134.13 -0.00361504
134.14 -0.00140459
134.15 0.000926015
134.16 0.0032265
134.17 0.00536232
134.18 0.007211
134.19 0.00866482
134.2 0.00963657
134.21 0.0100641
134.22 0.00991373
134.23 0.00917928
134.24 0.0078476
134.25 0.00603426
134.26 0.00382888
134.27 0.00134242
134.28 -0.00129845
134.29 -0.00395783
134.3 -0.00649744
134.31 -0.00878378
134.32 -0.0106732
134.33 -0.0120493
134.34 -0.0128573
134.35 -0.0130515
134.36 -0.0126171
134.37 -0.0115708
134.38 -0.00996047
134.39 -0.00786222
134.4 -0.00537698
134.41 -0.00261427
134.42 0.00025897
134.43 0.00309904
134.44 0.00576707
134.45 0.00813331
134.46 0.0100835
134.47 0.0115247
134.48 0.0123891
134.49 0.0126199
134.5 0.0121887
134.51 0.0111651
134.52 0.00960636
134.53 0.00759485
134.54 0.00523323
134.55 0.0026391
134.56 -6.11715e-05
134.57 -0.00273895
134.58 -0.0052517
134.59 -0.00748206
134.6 -0.00934067
134.61 -0.0107554
134.62 -0.0116785
134.63 -0.0120878
134.64 -0.0119875
134.65 -0.0114064
134.66 -0.0103906
134.67 -0.00899455
134.68 -0.00733854
134.69 -0.00551624
134.7 -0.00362326
134.71 -0.00175173
134.72 1.46665e-05
134.73 0.00160496
134.74 0.00296427
134.75 0.00404094
134.76 0.0048217
134.77 0.00532438
134.78 0.00557291
134.79 0.00560578
134.8 0.00547245
134.81 0.00522918
134.82 0.00493458
134.83 0.004645
134.84 0.00441908
134.85 0.00429235
134.86 0.00428749
134.87 0.00441173
134.88 0.00465629
134.89 0.00499694
134.9 0.00539583
134.91 0.00580416
134.92 0.00616177
134.93 0.00640047
134.94 0.00646704
134.95 0.00631261
134.96 0.00589997
134.97 0.00520715
134.98 0.00423013
134.99 0.00298439
135 0.00150533
135.01 -0.00016089
135.02 -0.00192348
135.03 -0.00369268
135.04 -0.00537433
135.05 -0.00687222
135.06 -0.00809392
135.07 -0.00895657
135.08 -0.00939248
135.09 -0.00934307
135.1 -0.00876008
135.11 -0.00768829
135.12 -0.00616579
135.13 -0.00425801
135.14 -0.00205538
135.15 0.000330526
135.16 0.00277229
135.17 0.00513296
135.18 0.00725116
135.19 0.00898566
135.2 0.0102275
135.21 0.0108817
135.22 0.0108812
135.23 0.0101915
135.24 0.00881349
135.25 0.00678518
135.26 0.00417782
135.27 0.00107456
135.28 -0.00233221
135.29 -0.00587875
135.3 -0.00938844
135.31 -0.0126805
135.32 -0.0155795
135.33 -0.0179241
135.34 -0.0195763
135.35 -0.020389
135.36 -0.0202863
135.37 -0.01929
135.38 -0.0174268
135.39 -0.0147674
135.4 -0.0114237
135.41 -0.00754383
135.42 -0.00330565
135.43 0.00109197
135.44 0.00541613
135.45 0.00944232
135.46 0.0129738
135.47 0.0158359
135.48 0.0178851
135.49 0.0190169
135.5 0.0191714
135.51 0.0183361
135.52 0.0165214
135.53 0.013796
135.54 0.0103569
135.55 0.00637476
135.56 0.00204687
135.57 -0.00241322
135.58 -0.00678618
135.59 -0.010858
135.6 -0.0144306
135.61 -0.0172753
135.62 -0.0192766
135.63 -0.020366
135.64 -0.0205045
135.65 -0.0197013
135.66 -0.0180124
135.67 -0.0155372
135.68 -0.0124132
135.69 -0.00880371
135.7 -0.0048993
135.71 -0.000936282
135.72 0.00288797
135.73 0.00638921
135.74 0.00940587
135.75 0.0118071
135.76 0.0134994
135.77 0.0144306
135.78 0.0145522
135.79 0.0139193
135.8 0.012646
135.81 0.0108489
135.82 0.00867023
135.83 0.00626936
135.84 0.00381302
135.85 0.00146539
135.86 -0.000621672
135.87 -0.00227134
135.88 -0.00341603
135.89 -0.0039983
135.9 -0.00399952
135.91 -0.00344097
135.92 -0.00238232
135.93 -0.000917789
135.94 0.000829741
135.95 0.00271536
135.96 0.00456325
135.97 0.00620967
135.98 0.00750783
135.99 0.00833065
136 0.00857899
136.01 0.0081884
136.02 0.00713388
136.03 0.00543249
136.04 0.00310538
136.05 0.000302801
136.06 -0.00282464
136.07 -0.00611004
136.08 -0.00936963
136.09 -0.012413
136.1 -0.0150537
136.11 -0.0171202
136.12 -0.0184465
136.13 -0.0188717
136.14 -0.0183881
136.15 -0.0169822
136.16 -0.0146898
136.17 -0.0115949
136.18 -0.0078266
136.19 -0.0035529
136.2 0.00102709
136.21 0.00568381
136.22 0.0101592
136.23 0.0142263
136.24 0.017678
136.25 0.0203352
136.26 0.0220574
136.27 0.0227502
136.28 0.0223705
136.29 0.0209226
136.3 0.0184049
136.31 0.0150384
136.32 0.0109957
136.33 0.00648481
136.34 0.00173804
136.35 -0.00299971
136.36 -0.00748367
136.37 -0.011482
136.38 -0.014747
136.39 -0.0170912
136.4 -0.018435
136.41 -0.018718
136.42 -0.017936
136.43 -0.0161412
136.44 -0.0134397
136.45 -0.00998576
136.46 -0.00597393
136.47 -0.00162097
136.48 0.00278253
136.49 0.00698773
136.5 0.0107598
136.51 0.0138877
136.52 0.0161953
136.53 0.0175507
136.54 0.0178735
136.55 0.0171063
136.56 0.0152583
136.57 0.0124958
136.58 0.00896652
136.59 0.0048588
136.6 0.000391579
136.61 -0.00419739
136.62 -0.00866417
136.63 -0.0127716
136.64 -0.0162477
136.65 -0.0189195
136.66 -0.0206669
136.67 -0.0214054
136.68 -0.0211048
136.69 -0.0197907
136.7 -0.0175426
136.71 -0.0144898
136.72 -0.0107975
136.73 -0.00666758
136.74 -0.0023777
136.75 0.00183581
136.76 0.005743
136.77 0.00913263
136.78 0.0118233
136.79 0.0136731
136.8 0.014587
136.81 0.0144682
136.82 0.0133518
136.83 0.0113522
136.84 0.00859311
136.85 0.00523908
136.86 0.00148644
136.87 -0.00244749
136.88 -0.00633624
136.89 -0.00995637
136.9 -0.0130375
136.91 -0.015435
136.92 -0.0170135
136.93 -0.0176836
136.94 -0.0174059
136.95 -0.0161932
136.96 -0.0141094
136.97 -0.0112661
136.98 -0.00780011
136.99 -0.00391715
137 0.000137966
137.01 0.00414402
137.02 0.00788309
137.03 0.0111521
137.04 0.0137735
137.05 0.0156046
137.06 0.0165447
137.07 0.0164657
137.08 0.0154319
137.09 0.0135155
137.1 0.0108196
137.11 0.007487
137.12 0.00369233
137.13 -0.000367648
137.14 -0.0044845
137.15 -0.00844054
137.16 -0.0120012
137.17 -0.0150084
137.18 -0.0173232
137.19 -0.0188457
137.2 -0.0195192
137.21 -0.0193329
137.22 -0.0183213
137.23 -0.0165615
137.24 -0.0141378
137.25 -0.011236
137.26 -0.00804681
137.27 -0.00475154
137.28 -0.00153132
137.29 0.0014429
137.3 0.0040195
137.31 0.00607419
137.32 0.00751066
137.33 0.0082234
137.34 0.00826341
137.35 0.00766726
137.36 0.00650795
137.37 0.00488984
137.38 0.00294183
137.39 0.000809385
137.4 -0.00135445
137.41 -0.00338545
137.42 -0.00512745
137.43 -0.00647122
137.44 -0.00732899
137.45 -0.00764585
137.46 -0.00740292
137.47 -0.00661821
137.48 -0.00534546
137.49 -0.00367085
137.5 -0.00169442
137.51 0.000413215
137.52 0.00250261
137.53 0.00442518
137.54 0.00604013
137.55 0.007223
137.56 0.00787323
137.57 0.00792055
137.58 0.00730901
137.59 0.0060266
137.6 0.0041623
137.61 0.00180067
137.62 -0.000942476
137.63 -0.00392618
137.64 -0.00699187
137.65 -0.00997194
137.66 -0.0126989
137.67 -0.0149751
137.68 -0.0166705
137.69 -0.0176893
137.7 -0.0179598
137.71 -0.0174494
137.72 -0.016166
137.73 -0.0141584
137.74 -0.0115141
137.75 -0.00834933
137.76 -0.00481043
137.77 -0.00111022
137.78 0.00256779
137.79 0.00604057
137.8 0.00913523
137.81 0.0116981
137.82 0.0136029
137.83 0.0147576
137.84 0.0150634
137.85 0.0145285
137.86 0.0132256
137.87 0.0112369
137.88 0.00868051
137.89 0.00570415
137.9 0.00247755
137.91 -0.000816572
137.92 -0.00399187
137.93 -0.00682583
137.94 -0.00917458
137.95 -0.0109073
137.96 -0.0119272
137.97 -0.0121768
137.98 -0.0116409
137.99 -0.0103476
138 -0.00836693
138.01 -0.00579009
138.02 -0.00277372
138.03 0.000480102
138.04 0.00378524
138.05 0.00695086
138.06 0.00979137
138.07 0.0121361
138.08 0.0138385
138.09 0.0147833
138.1 0.0148241
138.11 0.0139845
138.12 0.012297
138.13 0.00982555
138.14 0.00667496
138.15 0.00298592
138.16 -0.00107185
138.17 -0.00530779
138.18 -0.00951372
138.19 -0.0134537
138.2 -0.0169398
138.21 -0.0198003
138.22 -0.0218926
138.23 -0.0231091
138.24 -0.0233834
138.25 -0.0226925
138.26 -0.0210586
138.27 -0.0184984
138.28 -0.0151658
138.29 -0.0112364
138.3 -0.00688648
138.31 -0.00231054
138.32 0.00228771
138.33 0.00670481
138.34 0.0107469
138.35 0.0142318
138.36 0.0169455
138.37 0.0188295
138.38 0.0198146
138.39 0.0198728
138.4 0.0190177
138.41 0.0173033
138.42 0.0148209
138.43 0.011694
138.44 0.00805682
138.45 0.00410287
138.46 3.46328e-05
138.47 -0.00396659
138.48 -0.00772706
138.49 -0.0110881
138.5 -0.0139126
138.51 -0.0160904
138.52 -0.0175425
138.53 -0.0181542
138.54 -0.0179827
138.55 -0.0170632
138.56 -0.015457
138.57 -0.0132523
138.58 -0.0105593
138.59 -0.00750508
138.6 -0.00422677
138.61 -0.000867937
138.62 0.00241497
138.63 0.00548954
138.64 0.00824145
138.65 0.0105747
138.66 0.0124145
138.67 0.0137094
138.68 0.0144317
138.69 0.0145772
138.7 0.0141264
138.71 0.0131526
138.72 0.0117266
138.73 0.00991972
138.74 0.00781222
138.75 0.00548915
138.76 0.00303677
138.77 0.000539091
138.78 -0.00192322
138.79 -0.00426654
138.8 -0.00643558
138.81 -0.00838268
138.82 -0.0100717
138.83 -0.0114778
138.84 -0.0125869
138.85 -0.0133948
138.86 -0.0139056
138.87 -0.0141152
138.88 -0.0140485
138.89 -0.0137375
138.9 -0.0132061
138.91 -0.0124799
138.92 -0.011585
138.93 -0.0105476
138.94 -0.00939412
138.95 -0.00815082
138.96 -0.00684104
138.97 -0.00549963
138.98 -0.0041543
138.99 -0.00283363
139 -0.00156712
139.01 -0.000384995
139.02 0.000682172
139.03 0.0016041
139.04 0.00234327
139.05 0.00286767
139.06 0.00316456
139.07 0.00321702
139.08 0.00301472
139.09 0.00255515
139.1 0.00184462
139.11 0.000898907
139.12 -0.000256358
139.13 -0.00159636
139.14 -0.00305957
139.15 -0.0045898
139.16 -0.0061274
139.17 -0.00760905
139.18 -0.00897033
139.19 -0.0101484
139.2 -0.0110848
139.21 -0.0117197
139.22 -0.0119942
139.23 -0.011903
139.24 -0.0114349
139.25 -0.010594
139.26 -0.00940069
139.27 -0.00789085
139.28 -0.00611523
139.29 -0.00413744
139.3 -0.00202869
139.31 0.000115324
139.32 0.00220543
139.33 0.00415685
139.34 0.00588962
139.35 0.00733233
139.36 0.00842562
139.37 0.00912516
139.38 0.0093995
139.39 0.00921026
139.4 0.00860942
139.41 0.00763246
139.42 0.00633257
139.43 0.00477837
139.44 0.00305076
139.45 0.00123919
139.46 -0.000562558
139.47 -0.00225119
139.48 -0.00372858
139.49 -0.00492353
139.5 -0.00577414
139.51 -0.00623623
139.52 -0.00628583
139.53 -0.00592067
139.54 -0.00516071
139.55 -0.00404749
139.56 -0.00262349
139.57 -0.00100084
139.58 0.000724422
139.59 0.00244991
139.6 0.00407045
139.61 0.00548336
139.62 0.00659371
139.63 0.00731935
139.64 0.00757835
139.65 0.00731174
139.66 0.00653306
139.67 0.00525395
139.68 0.00351191
139.69 0.00136903
139.7 -0.00109032
139.71 -0.00376306
139.72 -0.00653193
139.73 -0.00925885
139.74 -0.0118038
139.75 -0.014044
139.76 -0.0158664
139.77 -0.017175
139.78 -0.0178954
139.79 -0.017979
139.8 -0.0174061
139.81 -0.0161758
139.82 -0.0143021
139.83 -0.0119108
139.84 -0.00910414
139.85 -0.00600558
139.86 -0.00275429
139.87 0.00050121
139.88 0.00360991
139.89 0.00642543
139.9 0.00878118
139.91 0.0105599
139.92 0.0116923
139.93 0.012123
139.94 0.0118297
139.95 0.010825
139.96 0.00915587
139.97 0.00690235
139.98 0.004173
139.99 0.00108701
140 -0.00215766
140.01 -0.00539509
140.02 -0.00845774
140.03 -0.0111844
140.04 -0.0134283
140.05 -0.0150639
140.06 -0.015994
140.07 -0.0161203
140.08 -0.0154097
140.09 -0.0139233
140.1 -0.0117207
140.11 -0.00889769
140.12 -0.00558242
140.13 -0.00192992
140.14 0.00188502
140.15 0.00567572
140.16 0.00921949
140.17 0.0123328
140.18 0.0148543
140.19 0.016645
140.2 0.0175975
140.21 0.0176421
140.22 0.01675
140.23 0.0149358
140.24 0.0122363
140.25 0.00873455
140.26 0.00463143
140.27 9.92497e-05
140.28 -0.00466819
140.29 -0.00946434
140.3 -0.0140793
140.31 -0.0183094
140.32 -0.0219665
140.33 -0.0248288
140.34 -0.0267843
140.35 -0.0277704
140.36 -0.0277465
140.37 -0.0267174
140.38 -0.0247325
140.39 -0.0218835
140.4 -0.0183004
140.41 -0.0141408
140.42 -0.0095841
140.43 -0.00487932
140.44 -0.000233808
140.45 0.00415141
140.46 0.00809085
140.47 0.0114231
140.48 0.0140179
140.49 0.0157825
140.5 0.0166193
140.51 0.0165306
140.52 0.0155987
140.53 0.0139069
140.54 0.011573
140.55 0.00874337
140.56 0.00558507
140.57 0.00227727
140.58 -0.000997868
140.59 -0.00403092
140.6 -0.00666949
140.61 -0.00878347
140.62 -0.0102731
140.63 -0.0110742
140.64 -0.0111616
140.65 -0.0105489
140.66 -0.00928817
140.67 -0.00745081
140.68 -0.00516009
140.69 -0.00259306
140.7 9.20878e-05
140.71 0.00273202
140.72 0.00516702
140.73 0.00724938
140.74 0.00885118
140.75 0.00987098
140.76 0.0101878
140.77 0.00980582
140.78 0.0087498
140.79 0.00706813
140.8 0.00484305
140.81 0.00218626
140.82 -0.000766954
140.83 -0.0038648
140.84 -0.00694322
140.85 -0.00981538
140.86 -0.0123352
140.87 -0.0143717
140.88 -0.0158187
140.89 -0.0166
140.9 -0.0166735
140.91 -0.0160331
140.92 -0.0147091
140.93 -0.0127355
140.94 -0.010238
140.95 -0.00736535
140.96 -0.00426267
140.97 -0.00108535
140.98 0.00200881
140.99 0.00486768
141 0.00735243
141.01 0.00934205
141.02 0.0106877
141.03 0.0113816
141.04 0.0114037
141.05 0.0107685
141.06 0.00952342
141.07 0.00774654
141.08 0.00554164
141.09 0.00303273
141.1 0.000356576
141.11 -0.00232539
141.12 -0.00486531
141.13 -0.00713375
141.14 -0.00901877
141.15 -0.0104315
141.16 -0.0113106
141.17 -0.011625
141.18 -0.011375
141.19 -0.0105531
141.2 -0.00926777
141.21 -0.00761602
141.22 -0.00570786
141.23 -0.00366597
141.24 -0.00161896
141.25 0.000305632
141.26 0.00198829
141.27 0.00331165
141.28 0.00416724
141.29 0.00452514
141.3 0.00435975
141.31 0.00367504
141.32 0.00250422
141.33 0.000907887
141.34 -0.00102925
141.35 -0.00320289
141.36 -0.00549382
141.37 -0.00775726
141.38 -0.00986383
141.39 -0.0116941
141.4 -0.013142
141.41 -0.0141198
141.42 -0.0145632
141.43 -0.0144339
141.44 -0.0137149
141.45 -0.0123903
141.46 -0.0105602
141.47 -0.00830129
141.48 -0.00571061
141.49 -0.00290074
141.5 5.73426e-06
141.51 0.00288219
141.52 0.005604
141.53 0.00803476
141.54 0.0100631
141.55 0.0116207
141.56 0.0126495
141.57 0.0131159
141.58 0.0130123
141.59 0.0123563
141.6 0.0111894
141.61 0.0095748
141.62 0.00756897
141.63 0.00530867
141.64 0.00290042
141.65 0.000452426
141.66 -0.0019292
141.67 -0.00414509
141.68 -0.00610674
141.69 -0.00774
141.7 -0.00897222
141.71 -0.00975361
141.72 -0.010093
141.73 -0.00999562
141.74 -0.00948493
141.75 -0.00860054
141.76 -0.00739579
141.77 -0.00593472
141.78 -0.00428884
141.79 -0.00253147
141.8 -0.000752431
141.81 0.000973301
141.82 0.00257839
141.83 0.00400344
141.84 0.00519867
141.85 0.00612511
141.86 0.00675525
141.87 0.00706659
141.88 0.00703845
141.89 0.00670247
141.9 0.00607653
141.91 0.00518671
141.92 0.004066
141.93 0.00275295
141.94 0.0012904
141.95 -0.000275849
141.96 -0.00189852
141.97 -0.00352225
141.98 -0.00509744
141.99 -0.00657762
142 -0.00791862
142.01 -0.00907941
142.02 -0.010023
142.03 -0.0107171
142.04 -0.0111339
142.05 -0.0112277
142.06 -0.0110133
142.07 -0.0104893
142.08 -0.0096634
142.09 -0.00855336
142.1 -0.00718682
142.11 -0.00560138
142.12 -0.00384408
142.13 -0.00196818
142.14 -4.47964e-05
142.15 0.00185182
142.16 0.0036505
142.17 0.00528038
142.18 0.00667389
142.19 0.00776978
142.2 0.00851608
142.21 0.00887302
142.22 0.00877987
142.23 0.0082609
142.24 0.00733441
142.25 0.00603294
142.26 0.00440706
142.27 0.00252393
142.28 0.000464942
142.29 -0.00167737
142.3 -0.00379961
142.31 -0.00578331
142.32 -0.00753141
142.33 -0.00895319
142.34 -0.00997107
142.35 -0.0105249
142.36 -0.0105756
142.37 -0.0101079
142.38 -0.00913188
142.39 -0.0076554
142.4 -0.00576935
142.41 -0.00357426
142.42 -0.00117662
142.43 0.00130393
142.44 0.00374018
142.45 0.00600368
142.46 0.00797125
142.47 0.00952463
142.48 0.0105291
142.49 0.0109552
142.5 0.0107671
142.51 0.00996034
142.52 0.00856234
142.53 0.00663181
142.54 0.00425655
142.55 0.00154951
142.56 -0.001359
142.57 -0.00430172
142.58 -0.00711915
142.59 -0.0096636
142.6 -0.0117995
142.61 -0.0134109
142.62 -0.014408
142.63 -0.0147326
142.64 -0.0143619
142.65 -0.0132523
142.66 -0.0115275
142.67 -0.00928418
142.68 -0.00664744
142.69 -0.00376639
142.7 -0.000806391
142.71 0.00205957
142.72 0.0046601
142.73 0.00681342
142.74 0.00835444
142.75 0.00920473
142.76 0.00929693
142.77 0.00860483
142.78 0.00714577
142.79 0.00498076
142.8 0.00221221
142.81 -0.00102052
142.82 -0.00455543
142.83 -0.00816306
142.84 -0.0116343
142.85 -0.0147666
142.86 -0.0173702
142.87 -0.0192788
142.88 -0.0203589
142.89 -0.020518
142.9 -0.0196896
142.91 -0.0178365
142.92 -0.0150987
142.93 -0.0115949
142.94 -0.00748746
142.95 -0.00297566
142.96 0.00171457
142.97 0.00634169
142.98 0.010661
142.99 0.0143906
143 0.0173135
143.01 0.0192803
143.02 0.0201689
143.03 0.0199115
143.04 0.0184991
143.05 0.0159833
143.06 0.0124746
143.07 0.008135
143.08 0.00315168
143.09 -0.00214772
143.1 -0.00748449
143.11 -0.0125724
143.12 -0.0171323
143.13 -0.0209066
143.14 -0.023673
143.15 -0.0252563
143.16 -0.0254768
143.17 -0.0242789
143.18 -0.021758
143.19 -0.0180138
143.2 -0.0132102
143.21 -0.00756773
143.22 -0.001354
143.23 0.00512973
143.24 0.0115629
143.25 0.0175631
143.26 0.0228248
143.27 0.0270796
143.28 0.030102
143.29 0.0317254
143.3 0.0318505
143.31 0.0304512
143.32 0.0275768
143.33 0.0233153
143.34 0.0178469
143.35 0.0115193
143.36 0.00463765
143.37 -0.00246426
143.38 -0.00944086
143.39 -0.0159516
143.4 -0.0216777
143.41 -0.0263386
143.42 -0.0296036
143.43 -0.0313585
143.44 -0.0315607
143.45 -0.0302119
143.46 -0.0273906
143.47 -0.0232481
143.48 -0.0180008
143.49 -0.0119195
143.5 -0.00531322
143.51 0.00145797
143.52 0.00801302
143.53 0.0140227
143.54 0.0191882
143.55 0.0232559
143.56 0.0260297
143.57 0.0273809
143.58 0.0272537
143.59 0.0255948
143.6 0.0225389
143.61 0.0183226
143.62 0.0131809
143.63 0.00739308
143.64 0.00126845
143.65 -0.00486977
143.66 -0.0107011
143.67 -0.0159239
143.68 -0.0201691
143.69 -0.0232905
143.7 -0.0251445
143.71 -0.025654
143.72 -0.0248131
143.73 -0.0226863
143.74 -0.0194045
143.75 -0.0151576
143.76 -0.0101672
143.77 -0.00473557
143.78 0.000801333
143.79 0.00614553
143.8 0.0110136
143.81 0.0151515
143.82 0.0183472
143.83 0.0204416
143.84 0.0213363
143.85 0.0209049
143.86 0.0192693
143.87 0.0165617
143.88 0.0129496
143.89 0.00864722
143.9 0.00390343
143.91 -0.00101154
143.92 -0.00582069
143.93 -0.0102404
143.94 -0.0139698
143.95 -0.0168373
143.96 -0.0186899
143.97 -0.019431
143.98 -0.0190246
143.99 -0.017497
144 -0.0149346
144.01 -0.0114792
144.02 -0.00729089
144.03 -0.00264633
144.04 0.00217764
144.05 0.00691835
144.06 0.0113191
144.07 0.0151423
144.08 0.018182
144.09 0.0202741
144.1 0.0212964
144.11 0.0211008
144.12 0.0197951
144.13 0.0174502
144.14 0.0141895
144.15 0.0101823
144.16 0.00563458
144.17 0.000777894
144.18 -0.0041425
144.19 -0.00886048
144.2 -0.0131138
144.21 -0.0167092
144.22 -0.0194796
144.23 -0.0213019
144.24 -0.0221028
144.25 -0.0218614
144.26 -0.0206092
144.27 -0.0184279
144.28 -0.0153892
144.29 -0.0117386
144.3 -0.00768013
144.31 -0.00342609
144.32 0.0008072
144.33 0.00481058
144.34 0.00839248
144.35 0.0113883
144.36 0.0136427
144.37 0.0150349
144.38 0.0155766
144.39 0.0152775
144.4 0.0141907
144.41 0.0124078
144.42 0.0100535
144.43 0.00727773
144.44 0.00424715
144.45 0.00114254
144.46 -0.00184425
144.47 -0.00455526
144.48 -0.0068554
144.49 -0.00863749
144.5 -0.00982698
144.51 -0.010385
144.52 -0.010309
144.53 -0.00962398
144.54 -0.00837145
144.55 -0.00669755
144.56 -0.00472139
144.57 -0.00257483
144.58 -0.000394679
144.59 0.00168502
144.6 0.00354047
144.61 0.00506474
144.62 0.00614729
144.63 0.00673392
144.64 0.00682031
144.65 0.00641552
144.66 0.00555761
144.67 0.00431084
144.68 0.00276158
144.69 0.00101303
144.7 -0.000820801
144.71 -0.00260758
144.72 -0.0042269
144.73 -0.00557499
144.74 -0.00656404
144.75 -0.00712676
144.76 -0.00721974
144.77 -0.00682549
144.78 -0.00595308
144.79 -0.00462236
144.8 -0.00289567
144.81 -0.00088017
144.82 0.0013264
144.83 0.00361676
144.84 0.00587962
144.85 0.00800528
144.86 0.00989101
144.87 0.011446
144.88 0.0125589
144.89 0.0131982
144.9 0.0133417
144.91 0.0129838
144.92 0.0121407
144.93 0.0108499
144.94 0.00916727
144.95 0.00716404
144.96 0.0049197
144.97 0.00252812
144.98 9.86976e-05
144.99 -0.00227723
145 -0.00451434
145.01 -0.00653666
145.02 -0.00828027
145.03 -0.00969525
145.04 -0.0107469
145.05 -0.0113919
145.06 -0.0116406
145.07 -0.0115189
145.08 -0.0110531
145.09 -0.0102796
145.1 -0.00924293
145.11 -0.0079927
145.12 -0.00658169
145.13 -0.00506286
145.14 -0.00348869
145.15 -0.00191541
145.16 -0.000385851
145.17 0.00106294
145.18 0.00240017
145.19 0.00360144
145.2 0.00464862
145.21 0.00552941
145.22 0.00622846
145.23 0.00674382
145.24 0.00708612
145.25 0.00726102
145.26 0.00727679
145.27 0.00714394
145.28 0.00687489
145.29 0.00648376
145.3 0.00598626
145.31 0.00539353
145.32 0.00473321
145.33 0.00402635
145.34 0.00329453
145.35 0.00256013
145.36 0.00184597
145.37 0.00117467
145.38 0.000567937
145.39 4.90922e-05
145.4 -0.000359753
145.41 -0.000651164
145.42 -0.000816834
145.43 -0.000853725
145.44 -0.000764564
145.45 -0.000558081
145.46 -0.000248959
145.47 0.00014254
145.48 0.000593256
145.49 0.00106806
145.5 0.0015339
145.51 0.00195844
145.52 0.00231053
145.53 0.00256195
145.54 0.00268912
145.55 0.00267456
145.56 0.00250562
145.57 0.00217178
145.58 0.001694
145.59 0.0010899
145.6 0.000385143
145.61 -0.000387772
145.62 -0.001191
145.63 -0.00198326
145.64 -0.00272203
145.65 -0.00335831
145.66 -0.00385189
145.67 -0.00417592
145.68 -0.00430777
145.69 -0.00423437
145.7 -0.00395318
145.71 -0.00347264
145.72 -0.00281195
145.73 -0.0020002
145.74 -0.00106899
145.75 -7.77401e-05
145.76 0.000923999
145.77 0.00188556
145.78 0.00275791
145.79 0.0034963
145.8 0.00406275
145.81 0.00442815
145.82 0.00456479
145.83 0.00446323
145.84 0.0041433
145.85 0.00362434
145.86 0.00293603
145.87 0.00211665
145.88 0.00121089
145.89 0.000267214
145.9 -0.000664966
145.91 -0.00152997
145.92 -0.00228598
145.93 -0.00290044
145.94 -0.00334951
145.95 -0.00362027
145.96 -0.00371131
145.97 -0.00363256
145.98 -0.00340449
145.99 -0.00305452
146 -0.00261975
146.01 -0.00214927
146.02 -0.00168469
146.03 -0.0012651
146.04 -0.000924265
146.05 -0.000688036
146.06 -0.000572273
146.07 -0.000581395
146.08 -0.00071389
146.09 -0.000942147
146.1 -0.00122943
146.11 -0.00153375
146.12 -0.00180703
146.13 -0.00199818
146.14 -0.00205665
146.15 -0.00193604
146.16 -0.0015954
146.17 -0.000986992
146.18 -0.000119605
146.19 0.00100086
146.2 0.00235147
146.21 0.00389235
146.22 0.00556784
146.23 0.00730866
146.24 0.00903494
146.25 0.0106507
146.26 0.0120562
146.27 0.013172
146.28 0.0139221
146.29 0.014244
146.3 0.0140927
146.31 0.013444
146.32 0.0122969
146.33 0.0106744
146.34 0.00859234
146.35 0.00616509
146.36 0.0034895
146.37 0.000674655
146.38 -0.00216047
146.39 -0.00489266
146.4 -0.00740059
146.41 -0.00957092
146.42 -0.0112869
146.43 -0.0124469
146.44 -0.013028
146.45 -0.0130071
146.46 -0.01239
146.47 -0.0112111
146.48 -0.00953244
146.49 -0.00744018
146.5 -0.00504057
146.51 -0.0024506
146.52 0.000177621
146.53 0.00271035
146.54 0.00502479
146.55 0.00701179
146.56 0.00858163
146.57 0.00966878
146.58 0.0102354
146.59 0.0102646
146.6 0.00975367
146.61 0.00880046
146.62 0.00748689
146.63 0.00591486
146.64 0.00420035
146.65 0.00246669
146.66 0.000837359
146.67 -0.000571287
146.68 -0.00163377
146.69 -0.00226834
146.7 -0.002438
146.71 -0.00212316
146.72 -0.00133574
146.73 -0.000119072
146.74 0.00145417
146.75 0.00328558
146.76 0.00525631
146.77 0.00722078
146.78 0.00902859
146.79 0.0105442
146.8 0.0116438
146.81 0.0122233
146.82 0.0122043
146.83 0.01154
146.84 0.0102188
146.85 0.00824252
146.86 0.00567916
146.87 0.00266683
146.88 -0.000660451
146.89 -0.00414573
146.9 -0.00761677
146.91 -0.0108948
146.92 -0.0138036
146.93 -0.016179
146.94 -0.0178136
146.95 -0.0186333
146.96 -0.0185782
146.97 -0.0176204
146.98 -0.0157759
146.99 -0.0131045
147 -0.0097077
147.01 -0.00572489
147.02 -0.00132125
147.03 0.00329508
147.04 0.00788748
147.05 0.0122448
147.06 0.0161647
147.07 0.0194641
147.08 0.0219877
147.09 0.0236159
147.1 0.0242711
147.11 0.0238567
147.12 0.022433
147.13 0.0201023
147.14 0.0169799
147.15 0.0132181
147.16 0.0089982
147.17 0.00452173
147.18 7.03594e-07
147.19 -0.00434901
147.2 -0.00828011
147.21 -0.0116345
147.22 -0.0142682
147.23 -0.0160746
147.24 -0.0169894
147.25 -0.0169931
147.26 -0.0161109
147.27 -0.0144111
147.28 -0.0119725
147.29 -0.00895938
147.3 -0.00557169
147.31 -0.00199176
147.32 0.00159418
147.33 0.00500554
147.34 0.00807649
147.35 0.0106642
147.36 0.0126555
147.37 0.0139087
147.38 0.0144436
147.39 0.0142725
147.4 0.0134418
147.41 0.0120319
147.42 0.0101523
147.43 0.00793442
147.44 0.00552438
147.45 0.00307844
147.46 0.00076594
147.47 -0.0012766
147.48 -0.00293366
147.49 -0.00411546
147.5 -0.0047623
147.51 -0.00484719
147.52 -0.00437658
147.53 -0.00338929
147.54 -0.00192769
147.55 -0.000121128
147.56 0.00190527
147.57 0.0040251
147.58 0.00610882
147.59 0.00803112
147.6 0.00967793
147.61 0.0109527
147.62 0.0117723
147.63 0.0120591
147.64 0.0118359
147.65 0.0111201
147.66 0.00995639
147.67 0.00841398
147.68 0.00658194
147.69 0.00456388
147.7 0.00247169
147.71 0.000427843
147.72 -0.0014484
147.73 -0.0030648
147.74 -0.00434479
147.75 -0.00523349
147.76 -0.0057003
147.77 -0.00574012
147.78 -0.00537308
147.79 -0.00464188
147.8 -0.00359162
147.81 -0.00233776
147.82 -0.000972522
147.83 0.00040834
147.84 0.00171153
147.85 0.00285188
147.86 0.00375749
147.87 0.00437404
147.88 0.00465375
147.89 0.00458406
147.9 0.00419952
147.91 0.0035393
147.92 0.00266156
147.93 0.00163961
147.94 0.00055719
147.95 -0.00049691
147.96 -0.00143453
147.97 -0.00215183
147.98 -0.00258863
147.99 -0.00269858
148 -0.0024536
148.01 -0.0018487
148.02 -0.000902751
148.03 0.000342099
148.04 0.00182243
148.05 0.00345826
148.06 0.00514521
148.07 0.0067695
148.08 0.00822622
148.09 0.00941585
148.1 0.0102502
148.11 0.0106577
148.12 0.0105881
148.13 0.0100159
148.14 0.00891113
148.15 0.00732906
148.16 0.00534577
148.17 0.00304696
148.18 0.00053823
148.19 -0.00205999
148.2 -0.00461828
148.21 -0.00700464
148.22 -0.00908631
148.23 -0.0107055
148.24 -0.0117931
148.25 -0.0122761
148.26 -0.0121089
148.27 -0.0112751
148.28 -0.00978882
148.29 -0.00769443
148.3 -0.00506453
148.31 -0.00198083
148.32 0.00141845
148.33 0.00497877
148.34 0.00855694
148.35 0.012009
148.36 0.0151966
148.37 0.0179933
148.38 0.0202898
148.39 0.0219987
148.4 0.0229961
148.41 0.0233052
148.42 0.0229291
148.43 0.0218961
148.44 0.0202597
148.45 0.0180956
148.46 0.015498
148.47 0.0125741
148.48 0.00943677
148.49 0.00621613
148.5 0.00303828
148.51 9.20715e-06
148.52 -0.00277783
148.53 -0.00524553
148.54 -0.00733496
148.55 -0.00900688
148.56 -0.0102421
148.57 -0.0110098
148.58 -0.0113564
148.59 -0.0113277
148.6 -0.0109728
148.61 -0.0103497
148.62 -0.00952137
148.63 -0.00855259
148.64 -0.00750682
148.65 -0.00644391
148.66 -0.00542298
148.67 -0.00448646
148.68 -0.00366622
148.69 -0.00298388
148.7 -0.00245096
148.71 -0.00206961
148.72 -0.00183363
148.73 -0.0017299
148.74 -0.00174527
148.75 -0.0018519
148.76 -0.00202117
148.77 -0.00222805
148.78 -0.00244825
148.79 -0.00265911
148.8 -0.00284015
148.81 -0.00297338
148.82 -0.00304305
148.83 -0.00302843
148.84 -0.00292498
148.85 -0.00272392
148.86 -0.00241784
148.87 -0.00200055
148.88 -0.00146703
148.89 -0.000813542
148.9 -3.80055e-05
148.91 0.000864696
148.92 0.00189182
148.93 0.00302973
148.94 0.00426652
148.95 0.00558508
148.96 0.00696262
148.97 0.00837044
148.98 0.00977401
148.99 0.0111334
149 0.0123931
149.01 0.0135072
149.02 0.0144278
149.03 0.0151073
149.04 0.0155013
149.05 0.0155716
149.06 0.0152879
149.07 0.0146308
149.08 0.0135828
149.09 0.0121386
149.1 0.0103487
149.11 0.00825314
149.12 0.00590616
149.13 0.00337474
149.14 0.000736439
149.15 -0.00192342
149.16 -0.00451503
149.17 -0.00693121
149.18 -0.00908273
149.19 -0.0108966
149.2 -0.0123071
149.21 -0.0132637
149.22 -0.0137338
149.23 -0.013704
149.24 -0.0131819
149.25 -0.0121902
149.26 -0.0107536
149.27 -0.00897855
149.28 -0.00694701
149.29 -0.00475089
149.3 -0.00248752
149.31 -0.000255002
149.32 0.00185246
149.33 0.00374917
149.34 0.00534432
149.35 0.00657904
149.36 0.00743275
149.37 0.00789321
149.38 0.00796943
149.39 0.00769091
149.4 0.00710579
149.41 0.00627803
149.42 0.0052838
149.43 0.00420767
149.44 0.00315095
149.45 0.00219794
149.46 0.00142483
149.47 0.000895726
149.48 0.000659018
149.49 0.000744609
149.5 0.00116217
149.51 0.00191083
149.52 0.00295923
149.53 0.00423437
149.54 0.00566669
149.55 0.00717529
149.56 0.00867232
149.57 0.0100679
149.58 0.0112748
149.59 0.0122138
149.6 0.0127882
149.61 0.0129639
149.62 0.0127198
149.63 0.01205
149.64 0.0109699
149.65 0.00951633
149.66 0.00774531
149.67 0.00572939
149.68 0.0035528
149.69 0.00131664
149.7 -0.000870635
149.71 -0.00291403
149.72 -0.00472604
149.73 -0.00623104
149.74 -0.00736901
149.75 -0.00809845
149.76 -0.00839828
149.77 -0.00824428
149.78 -0.00767385
149.79 -0.00674681
149.8 -0.00552453
149.81 -0.00408123
149.82 -0.00249994
149.83 -0.000868009
149.84 0.000727486
149.85 0.00220325
149.86 0.00346365
149.87 0.00446315
149.88 0.00516033
149.89 0.00553137
149.9 0.00557074
149.91 0.00529082
149.92 0.00472068
149.93 0.00390385
149.94 0.00289
149.95 0.00175049
149.96 0.000562773
149.97 -0.000605398
149.98 -0.00169039
149.99 -0.00263598
150 -0.00339609
150.01 -0.00393682
150.02 -0.00423771
150.03 -0.00427205
150.04 -0.00406736
150.05 -0.00364789
150.06 -0.00304494
150.07 -0.00229699
150.08 -0.00144682
150.09 -0.000538568
150.1 0.000385224
150.11 0.0012846
150.12 0.00212302
150.13 0.00288082
150.14 0.00354584
150.15 0.00411539
150.16 0.00459567
150.17 0.00500054
150.18 0.00534976
150.19 0.00566681
150.2 0.00597754
150.21 0.00630765
150.22 0.00667567
150.23 0.00709361
150.24 0.00756551
150.25 0.00808651
150.26 0.0086425
150.27 0.00921058
150.28 0.00975935
150.29 0.0102443
150.3 0.0106266
150.31 0.0108654
150.32 0.0109227
150.33 0.0107661
150.34 0.0103718
150.35 0.00972647
150.36 0.0088296
150.37 0.00768305
150.38 0.00632145
150.39 0.00479779
150.4 0.00316649
150.41 0.00149085
150.42 -0.000159936
150.43 -0.00171439
150.44 -0.00310252
150.45 -0.0042597
150.46 -0.00510008
150.47 -0.0056055
150.48 -0.00575306
150.49 -0.00553678
150.5 -0.00496917
150.51 -0.004081
150.52 -0.00292008
150.53 -0.00154911
150.54 -4.07995e-05
150.55 0.00151289
150.56 0.00301854
150.57 0.00439221
150.58 0.00555679
150.59 0.00644639
150.6 0.00701007
150.61 0.00721491
150.62 0.00704801
150.63 0.00649203
150.64 0.00560337
150.65 0.00444147
150.66 0.00307557
150.67 0.0015875
150.68 6.73063e-05
150.69 -0.00139175
150.7 -0.00269833
150.71 -0.00376143
150.72 -0.00448677
150.73 -0.00484107
150.74 -0.00479326
150.75 -0.00433486
150.76 -0.00348076
150.77 -0.00226887
150.78 -0.000758503
150.79 0.000972441
150.8 0.00283265
150.81 0.00470351
150.82 0.00647363
150.83 0.00803804
150.84 0.00929976
150.85 0.010175
150.86 0.0105979
150.87 0.0105237
150.88 0.00992879
150.89 0.00877865
150.9 0.00715537
150.91 0.00511859
150.92 0.00274869
150.93 0.000142904
150.94 -0.00258937
150.95 -0.00533189
150.96 -0.00796715
150.97 -0.0103671
150.98 -0.012416
150.99 -0.0140408
151 -0.0151769
151.01 -0.0157815
151.02 -0.0158361
151.03 -0.0153462
151.04 -0.0143406
151.05 -0.0128697
151.06 -0.0109754
151.07 -0.00877976
151.08 -0.0063813
151.09 -0.00387863
151.1 -0.00136959
151.11 0.00105339
151.12 0.00330729
151.13 0.00532193
151.14 0.00703247
151.15 0.00838718
151.16 0.00938932
151.17 0.0100395
151.18 0.0103537
151.19 0.0103609
151.2 0.0101003
151.21 0.0096181
151.22 0.00896433
151.23 0.00818442
151.24 0.00733588
151.25 0.00646289
151.26 0.00559938
151.27 0.00477088
151.28 0.00399434
151.29 0.00327849
151.3 0.00262503
151.31 0.00203089
151.32 0.00149134
151.33 0.000993371
151.34 0.000530215
151.35 9.86323e-05
151.36 -0.000299542
151.37 -0.000656404
151.38 -0.000957621
151.39 -0.00118278
151.4 -0.00129934
151.41 -0.00127611
151.42 -0.0010877
151.43 -0.000706807
151.44 -0.00011142
151.45 0.000712364
151.46 0.00176773
151.47 0.00304505
151.48 0.00452038
151.49 0.0061647
151.5 0.00790332
151.51 0.00966639
151.52 0.011374
151.53 0.0129394
151.54 0.0142729
151.55 0.0152869
151.56 0.0159002
151.57 0.0160234
151.58 0.0155898
151.59 0.0145989
151.6 0.0130476
151.61 0.0109585
151.62 0.00838087
151.63 0.00538942
151.64 0.00208226
151.65 -0.00142272
151.66 -0.00498651
151.67 -0.00844897
151.68 -0.0116652
151.69 -0.0144973
151.7 -0.0168203
151.71 -0.0185287
151.72 -0.0195417
151.73 -0.0198082
151.74 -0.0192931
151.75 -0.0179807
151.76 -0.0159841
151.77 -0.0133926
151.78 -0.0103231
151.79 -0.00691451
151.8 -0.00332126
151.81 0.000294118
151.82 0.00376899
151.83 0.0069214
151.84 0.00960847
151.85 0.0117303
151.86 0.0132065
151.87 0.0139903
151.88 0.0140703
151.89 0.0134714
151.9 0.0122525
151.91 0.0105011
151.92 0.00831332
151.93 0.00587304
151.94 0.00332914
151.95 0.000832235
151.96 -0.00147351
151.97 -0.00345814
151.98 -0.00501286
151.99 -0.00605582
152 -0.00650947
152.01 -0.00635838
152.02 -0.00565529
152.03 -0.00445788
152.04 -0.00285238
152.05 -0.000948247
152.06 0.00112834
152.07 0.00324205
152.08 0.00525635
152.09 0.007012
152.1 0.00840513
152.11 0.00935053
152.12 0.00978911
152.13 0.00969346
152.14 0.00906944
152.15 0.00795591
152.16 0.00642245
152.17 0.00455919
152.18 0.00249207
152.19 0.000374047
152.2 -0.00165765
152.21 -0.00347012
152.22 -0.00494286
152.23 -0.00597515
152.24 -0.00649238
152.25 -0.00645089
152.26 -0.00580292
152.27 -0.0046081
152.28 -0.00294751
152.29 -0.000918447
152.3 0.00135723
152.31 0.00373991
152.32 0.00608025
152.33 0.0082278
152.34 0.0100328
152.35 0.0113287
152.36 0.0120489
152.37 0.0121303
152.38 0.0115467
152.39 0.01031
152.4 0.00847128
152.41 0.00611786
152.42 0.00336943
152.43 0.000367388
152.44 -0.0026994
152.45 -0.00564825
152.46 -0.00830891
152.47 -0.0105241
152.48 -0.0121586
152.49 -0.0131075
152.5 -0.0133022
152.51 -0.0127158
152.52 -0.0112983
152.53 -0.00919313
152.54 -0.00651024
152.55 -0.00339356
152.56 -1.37778e-05
152.57 0.00344073
152.58 0.00677409
152.59 0.00979363
152.6 0.0122951
152.61 0.0140987
152.62 0.015121
152.63 0.015292
152.64 0.0145882
152.65 0.0130344
152.66 0.0107032
152.67 0.0077115
152.68 0.00421488
152.69 0.000391187
152.7 -0.00351108
152.71 -0.00727008
152.72 -0.0106738
152.73 -0.0135272
152.74 -0.0156623
152.75 -0.0169486
152.76 -0.0172998
152.77 -0.016657
152.78 -0.0149987
152.79 -0.0124741
152.8 -0.00921105
152.81 -0.00537847
152.82 -0.00117791
152.83 0.00316713
152.84 0.00742298
152.85 0.0113582
152.86 0.0147098
152.87 0.0172885
152.88 0.0189691
152.89 0.019656
152.9 0.0193061
152.91 0.0179316
152.92 0.0155992
152.93 0.0124274
152.94 0.00857659
152.95 0.00423312
152.96 -0.000315254
152.97 -0.00482583
152.98 -0.00905775
152.99 -0.0127848
153 -0.0158075
153.01 -0.0179633
153.02 -0.0191358
153.03 -0.0192106
153.04 -0.0181856
153.05 -0.0161707
153.06 -0.0132784
153.07 -0.00966747
153.08 -0.00553402
153.09 -0.00110136
153.1 0.00339207
153.11 0.00770538
153.12 0.0115541
153.13 0.0147504
153.14 0.0171331
153.15 0.0185825
153.16 0.0190296
153.17 0.0184593
153.18 0.0169107
153.19 0.0144752
153.2 0.0112723
153.21 0.00748504
153.22 0.00336946
153.23 -0.000849845
153.24 -0.00494612
153.25 -0.00870268
153.26 -0.0119245
153.27 -0.0144484
153.28 -0.0161515
153.29 -0.0168917
153.3 -0.0166909
153.31 -0.0156067
153.32 -0.0137233
153.33 -0.011167
153.34 -0.00809927
153.35 -0.0047064
153.36 -0.00118943
153.37 0.00224279
153.38 0.00535869
153.39 0.00799678
153.4 0.010018
153.41 0.011322
153.42 0.0118518
153.43 0.0115967
153.44 0.0105922
153.45 0.00891689
153.46 0.00666578
153.47 0.00401746
153.48 0.00116664
153.49 -0.00170378
153.5 -0.00441251
153.51 -0.00679037
153.52 -0.00868999
153.53 -0.00999424
153.54 -0.0106223
153.55 -0.0104687
153.56 -0.0096126
153.57 -0.00811035
153.58 -0.0060569
153.59 -0.00357971
153.6 -0.000831118
153.61 0.00202073
153.62 0.00480182
153.63 0.0073263
153.64 0.00941693
153.65 0.0109632
153.66 0.0118733
153.67 0.0120934
153.68 0.011611
153.69 0.0104552
153.7 0.00869543
153.71 0.00643679
153.72 0.00379808
153.73 0.000976649
153.74 -0.00185149
153.75 -0.00451545
153.76 -0.00685412
153.77 -0.00872556
153.78 -0.0100152
153.79 -0.0106423
153.8 -0.0105478
153.81 -0.00970349
153.82 -0.008209
153.83 -0.00615211
153.84 -0.00365332
153.85 -0.000858782
153.86 0.0020681
153.87 0.00495611
153.88 0.00763607
153.89 0.00991821
153.9 0.0116674
153.91 0.0127957
153.92 0.0132396
153.93 0.0129755
153.94 0.0120207
153.95 0.0104321
153.96 0.00830329
153.97 0.00575624
153.98 0.00293482
153.99 3.7546e-05
154 -0.00276817
154.01 -0.00532206
154.02 -0.00748035
154.03 -0.00912409
154.04 -0.0101661
154.05 -0.0105561
154.06 -0.010253
154.07 -0.00929743
154.08 -0.00779696
154.09 -0.00586175
154.1 -0.0036284
154.11 -0.00125175
154.12 0.00110431
154.13 0.00327668
154.14 0.00511291
154.15 0.00642996
154.16 0.00715836
154.17 0.00724085
154.18 0.00665707
154.19 0.00542841
154.2 0.0036172
154.21 0.00132355
154.22 -0.00132001
154.23 -0.00415614
154.24 -0.00699015
154.25 -0.00963191
154.26 -0.0119088
154.27 -0.0136653
154.28 -0.0147724
154.29 -0.0151356
154.3 -0.0147007
154.31 -0.0134576
154.32 -0.0113925
154.33 -0.00863912
154.34 -0.00534481
154.35 -0.00167285
154.36 0.00218887
154.37 0.0060378
154.38 0.00966742
154.39 0.0128784
154.4 0.0154763
154.41 0.0172503
154.42 0.0181421
154.43 0.0180897
154.44 0.0170794
154.45 0.015147
154.46 0.0123762
154.47 0.00889454
154.48 0.00486727
154.49 0.000481345
154.5 -0.00401637
154.51 -0.00839189
154.52 -0.0124299
154.53 -0.0159325
154.54 -0.018729
154.55 -0.020685
154.56 -0.0217084
154.57 -0.0217529
154.58 -0.0207391
154.59 -0.0188222
154.6 -0.0161099
154.61 -0.0127476
154.62 -0.00891073
154.63 -0.00479479
154.64 -0.000605309
154.65 0.00345298
154.66 0.00716589
154.67 0.0103374
154.68 0.0128517
154.69 0.0146124
154.7 0.0155644
154.71 0.0156965
154.72 0.0150396
154.73 0.0136647
154.74 0.0116775
154.75 0.00918511
154.76 0.00638869
154.77 0.00345901
154.78 0.00055906
154.79 -0.00215847
154.8 -0.00455936
154.81 -0.00653462
154.82 -0.00800575
154.83 -0.00891368
154.84 -0.00922722
154.85 -0.00901651
154.86 -0.00834344
154.87 -0.00729478
154.88 -0.00597568
154.89 -0.00450229
154.9 -0.00299391
154.91 -0.0015651
154.92 -0.000335777
154.93 0.000610946
154.94 0.00122696
154.95 0.00148623
154.96 0.00139162
154.97 0.000974055
154.98 0.000289962
154.99 -0.000583046
155 -0.00155165
155.01 -0.00250283
155.02 -0.00332715
155.03 -0.00392987
155.04 -0.00423107
155.05 -0.00417155
155.06 -0.00371757
155.07 -0.00286388
155.08 -0.001635
155.09 -7.28692e-05
155.1 0.00172756
155.11 0.00364538
155.12 0.00555931
155.13 0.00734094
155.14 0.00886258
155.15 0.0100055
155.16 0.0106675
155.17 0.0107702
155.18 0.0102093
155.19 0.00902496
155.2 0.00725
155.21 0.00494955
155.22 0.00222194
155.23 -0.000805912
155.24 -0.00398478
155.25 -0.00715094
155.26 -0.0101229
155.27 -0.0127077
155.28 -0.0147702
155.29 -0.0161874
155.3 -0.0168682
155.31 -0.0167593
155.32 -0.0158492
155.33 -0.0141695
155.34 -0.011795
155.35 -0.00880806
155.36 -0.00540661
155.37 -0.00178264
155.38 0.0018687
155.39 0.00534739
155.4 0.00845929
155.41 0.0110268
155.42 0.0128986
155.43 0.0139424
155.44 0.0140299
155.45 0.0132086
155.46 0.0115122
155.47 0.00902218
155.48 0.00586492
155.49 0.00220504
155.5 -0.00176252
155.51 -0.00582245
155.52 -0.00972914
155.53 -0.0132389
155.54 -0.0161552
155.55 -0.0183037
155.56 -0.0195474
155.57 -0.0197949
155.58 -0.0190045
155.59 -0.0171878
155.6 -0.0144071
155.61 -0.0107167
155.62 -0.00637271
155.63 -0.00157807
155.64 0.00343987
155.65 0.00844094
155.66 0.0131843
155.67 0.0174403
155.68 0.0210025
155.69 0.0236551
155.7 0.0252465
155.71 0.0257526
155.72 0.0251562
155.73 0.0234934
155.74 0.0208516
155.75 0.0173649
155.76 0.0132067
155.77 0.00858069
155.78 0.00370978
155.79 -0.0011365
155.8 -0.00572984
155.81 -0.00986259
155.82 -0.0133549
155.83 -0.0160634
155.84 -0.0178873
155.85 -0.0187729
155.86 -0.0186916
155.87 -0.0176588
155.88 -0.0158357
155.89 -0.013356
155.9 -0.0103825
155.91 -0.00709733
155.92 -0.00369229
155.93 -0.000358101
155.94 0.00272546
155.95 0.00536293
155.96 0.00742932
155.97 0.00884906
155.98 0.00957368
155.99 0.00959529
156 0.00894558
156.01 0.00769271
156.02 0.00593629
156.03 0.00379822
156.04 0.00141789
156.05 -0.00102475
156.06 -0.00338268
156.07 -0.00552024
156.08 -0.0073207
156.09 -0.00869236
156.1 -0.00957319
156.11 -0.00993357
156.12 -0.00975285
156.13 -0.00907834
156.14 -0.00800323
156.15 -0.00662046
156.16 -0.0050391
156.17 -0.00337704
156.18 -0.00175343
156.19 -0.000281057
156.2 0.000940726
156.21 0.00179743
156.22 0.002262
156.23 0.00231545
156.24 0.00196657
156.25 0.00125264
156.26 0.000236828
156.27 -0.000995983
156.28 -0.00234473
156.29 -0.00369474
156.3 -0.00491722
156.31 -0.00590706
156.32 -0.00657242
156.33 -0.00684148
156.34 -0.00666732
156.35 -0.00603144
156.36 -0.00494553
156.37 -0.00345148
156.38 -0.00160168
156.39 0.000477901
156.4 0.00266231
156.41 0.00482185
156.42 0.00682283
156.43 0.00853529
156.44 0.00984067
156.45 0.0106389
156.46 0.0108426
156.47 0.0103695
156.48 0.00925995
156.49 0.00754396
156.5 0.00528528
156.51 0.00257846
156.52 -0.000455582
156.53 -0.00367563
156.54 -0.00692726
156.55 -0.0100338
156.56 -0.012825
156.57 -0.0151651
156.58 -0.0169344
156.59 -0.0180403
156.6 -0.0184228
156.61 -0.0180573
156.62 -0.0169564
156.63 -0.0151672
156.64 -0.0127316
156.65 -0.00983058
156.66 -0.00660604
156.67 -0.00321501
156.68 0.000178453
156.69 0.00341153
156.7 0.00633085
156.71 0.00880016
156.72 0.0106789
156.73 0.0118724
156.74 0.0123682
156.75 0.0121597
156.76 0.0112751
156.77 0.00977539
156.78 0.00775034
156.79 0.00531349
156.8 0.00259559
156.81 -0.000262157
156.82 -0.00309436
156.83 -0.00576406
156.84 -0.00814983
156.85 -0.0101502
156.86 -0.0116885
156.87 -0.0127158
156.88 -0.0132131
156.89 -0.0131776
156.9 -0.0126363
156.91 -0.0116921
156.92 -0.0104326
156.93 -0.00895798
156.94 -0.00737561
156.95 -0.00579294
156.96 -0.00431133
156.97 -0.0030201
156.98 -0.00201263
156.99 -0.00133171
157 -0.000991641
157.01 -0.000989395
157.02 -0.00129801
157.03 -0.00186879
157.04 -0.00263483
157.05 -0.00351553
157.06 -0.00442101
157.07 -0.00524596
157.08 -0.00590297
157.09 -0.00631599
157.1 -0.0064243
157.11 -0.00618632
157.12 -0.00558241
157.13 -0.00461629
157.14 -0.00331503
157.15 -0.00171671
157.16 9.70728e-05
157.17 0.0020275
157.18 0.00397851
157.19 0.00585026
157.2 0.00754493
157.21 0.00897235
157.22 0.0100552
157.23 0.0107336
157.24 0.0109269
157.25 0.0106609
157.26 0.00995185
157.27 0.0088377
157.28 0.00737803
157.29 0.00565058
157.3 0.00374697
157.31 0.0017676
157.32 -0.000179119
157.33 -0.00197812
157.34 -0.0035421
157.35 -0.00479595
157.36 -0.0056834
157.37 -0.00617003
157.38 -0.00624511
157.39 -0.00592204
157.4 -0.00523753
157.41 -0.00423238
157.42 -0.0030088
157.43 -0.00166366
157.44 -0.000294848
157.45 0.000998638
157.46 0.00212236
157.47 0.00299185
157.48 0.00353746
157.49 0.00370014
157.5 0.00342855
157.51 0.00275124
157.52 0.0016922
157.53 0.000297842
157.54 -0.00136551
157.55 -0.00321535
157.56 -0.0051575
157.57 -0.00709136
157.58 -0.00890289
157.59 -0.0104884
157.6 -0.0117688
157.61 -0.012677
157.62 -0.0131655
157.63 -0.0132092
157.64 -0.0128068
157.65 -0.0119804
157.66 -0.0107732
157.67 -0.00923134
157.68 -0.00747222
157.69 -0.00559073
157.7 -0.003687
157.71 -0.001861
157.72 -0.000207094
157.73 0.00119111
157.74 0.00226523
157.75 0.002948
157.76 0.00320842
157.77 0.00306605
157.78 0.00254411
157.79 0.00168711
157.8 0.000558173
157.81 -0.000764676
157.82 -0.00219297
157.83 -0.00363284
157.84 -0.00497599
157.85 -0.00613349
157.86 -0.00703139
157.87 -0.00761056
157.88 -0.00783096
157.89 -0.00767388
157.9 -0.007143
157.91 -0.0062642
157.92 -0.00507753
157.93 -0.00364825
157.94 -0.00207794
157.95 -0.000457637
157.96 0.0011179
157.97 0.00255547
157.98 0.00376871
157.99 0.00468294
158 0.00523945
158.01 0.0053707
158.02 0.00507729
158.03 0.00438085
158.04 0.00331506
158.05 0.00193472
158.06 0.000312903
158.07 -0.00146274
158.08 -0.00329456
158.09 -0.00507795
158.1 -0.00669074
158.11 -0.00804433
158.12 -0.00905742
158.13 -0.00966559
158.14 -0.00982476
158.15 -0.00951377
158.16 -0.00873564
158.17 -0.00751775
158.18 -0.00589415
158.19 -0.00395158
158.2 -0.00179835
158.21 0.000461526
158.22 0.00271742
158.23 0.00485754
158.24 0.00677447
158.25 0.00837053
158.26 0.00956268
158.27 0.0102397
158.28 0.0104019
158.29 0.0100384
158.3 0.00916253
158.31 0.00781183
158.32 0.00604672
158.33 0.00394735
158.34 0.00160977
158.35 -0.000859148
158.36 -0.00333253
158.37 -0.00569063
158.38 -0.00782673
158.39 -0.00964558
158.4 -0.0110678
158.41 -0.0120338
158.42 -0.0125063
158.43 -0.0124719
158.44 -0.0119068
158.45 -0.010882
158.46 -0.00946825
158.47 -0.00774553
158.48 -0.00580795
158.49 -0.00375912
158.5 -0.00170709
158.51 0.000240907
158.52 0.00197715
158.53 0.00338761
158.54 0.00441743
158.55 0.00501512
158.56 0.00515113
158.57 0.00481912
158.58 0.00403621
158.59 0.00284207
158.6 0.00129706
158.61 -0.000531504
158.62 -0.00253207
158.63 -0.00459245
158.64 -0.00660575
158.65 -0.00846649
158.66 -0.0100755
158.67 -0.0113445
158.68 -0.0122001
158.69 -0.0125844
158.7 -0.0124202
158.71 -0.0117438
158.72 -0.0105717
158.73 -0.00894287
158.74 -0.00691657
158.75 -0.00456993
158.76 -0.00199446
158.77 0.000707961
158.78 0.00342519
158.79 0.00603423
158.8 0.00843086
158.81 0.0105203
158.82 0.0122208
158.83 0.0134671
158.84 0.0142132
158.85 0.0144337
158.86 0.0141252
158.87 0.013266
158.88 0.0119395
158.89 0.0102124
158.9 0.00816152
158.91 0.00587537
158.92 0.00345041
158.93 0.00098672
158.94 -0.00141616
158.95 -0.00365616
158.96 -0.0056301
158.97 -0.00727841
158.98 -0.00854614
158.99 -0.00939594
159 -0.00980916
159.01 -0.00978613
159.02 -0.00934566
159.03 -0.00852373
159.04 -0.00735318
159.05 -0.00592012
159.06 -0.00430735
159.07 -0.00259427
159.08 -0.000861533
159.09 0.000812498
159.1 0.00235515
159.11 0.00370244
159.12 0.00479751
159.13 0.00557899
159.14 0.00604582
159.15 0.00619128
159.16 0.00602323
159.17 0.00556306
159.18 0.00484405
159.19 0.00390921
159.2 0.00280876
159.21 0.00159451
159.22 0.000330661
159.23 -0.000924545
159.24 -0.00212183
159.25 -0.00321881
159.26 -0.00418169
159.27 -0.00498653
159.28 -0.00561983
159.29 -0.00607851
159.3 -0.00635524
159.31 -0.00648338
159.32 -0.00648716
159.33 -0.00639509
159.34 -0.00623801
159.35 -0.00604675
159.36 -0.00584992
159.37 -0.00567183
159.38 -0.00553272
159.39 -0.00544498
159.4 -0.00540758
159.41 -0.0054136
159.42 -0.0054486
159.43 -0.00549172
159.44 -0.00551725
159.45 -0.00549661
159.46 -0.0054006
159.47 -0.00519205
159.48 -0.00485269
159.49 -0.00436946
159.5 -0.00373627
159.51 -0.00295713
159.52 -0.00204688
159.53 -0.00103134
159.54 5.33311e-05
159.55 0.00116114
159.56 0.00223187
159.57 0.00320652
159.58 0.00402642
159.59 0.00463523
159.6 0.00498237
159.61 0.00502619
159.62 0.00473696
159.63 0.00409931
159.64 0.00309385
159.65 0.00175349
159.66 0.000129454
159.67 -0.00172191
159.68 -0.00372963
159.69 -0.00581082
159.7 -0.00787412
159.71 -0.00982373
159.72 -0.0115618
159.73 -0.0129646
159.74 -0.0139732
159.75 -0.0145233
159.76 -0.0145694
159.77 -0.0140871
159.78 -0.0130751
159.79 -0.0115564
159.8 -0.00957782
159.81 -0.00719468
159.82 -0.00450906
159.83 -0.00164774
159.84 0.00127053
159.85 0.00412187
159.86 0.00678291
159.87 0.00913652
159.88 0.0110773
159.89 0.0125167
159.9 0.0133349
159.91 0.0135333
159.92 0.0131078
159.93 0.0120768
159.94 0.0104859
159.95 0.00840542
159.96 0.00592787
159.97 0.00316299
159.98 0.000231998
159.99 -0.00272273
160 -0.00556394
160.01 -0.00817126
160.02 -0.0104375
160.03 -0.0122738
160.04 -0.0136135
160.05 -0.0144152
160.06 -0.0146647
160.07 -0.01434
160.08 -0.0135127
160.09 -0.0122639
160.1 -0.0106809
160.11 -0.0088646
160.12 -0.00692472
160.13 -0.00497338
160.14 -0.00311921
160.15 -0.00146582
160.16 -0.000122839
160.17 0.000866147
160.18 0.00146388
160.19 0.00165796
160.2 0.00146118
160.21 0.000910473
160.22 6.45019e-05
160.23 -0.000999932
160.24 -0.00219393
160.25 -0.00340493
160.26 -0.00452826
160.27 -0.00546941
160.28 -0.00614498
160.29 -0.00648784
160.3 -0.00645126
160.31 -0.00601203
160.32 -0.00517221
160.33 -0.00392939
160.34 -0.00237857
160.35 -0.000598638
160.36 0.00131481
160.37 0.00325448
160.38 0.00510723
160.39 0.0067604
160.4 0.0081082
160.41 0.00903933
160.42 0.00946551
160.43 0.00936476
160.44 0.00871963
160.45 0.00754159
160.46 0.00587113
160.47 0.00377629
160.48 0.00134968
160.49 -0.00129582
160.5 -0.00402882
160.51 -0.0066943
160.52 -0.00915449
160.53 -0.0112804
160.54 -0.0129572
160.55 -0.0140906
160.56 -0.0146117
160.57 -0.0144809
160.58 -0.0136757
160.59 -0.0121968
160.6 -0.0101546
160.61 -0.00764098
160.62 -0.00477137
160.63 -0.00167939
160.64 0.00148982
160.65 0.00458668
160.66 0.00746464
160.67 0.00995741
160.68 0.0119468
160.69 0.0133547
160.7 0.01412
160.71 0.014213
160.72 0.0136368
160.73 0.0124267
160.74 0.0106484
160.75 0.0083913
160.76 0.00575389
160.77 0.00290839
160.78 -5.81832e-06
160.79 -0.00284942
160.8 -0.00549023
160.81 -0.00780975
160.82 -0.00970889
160.83 -0.0111127
160.84 -0.011947
160.85 -0.012195
160.86 -0.0119009
160.87 -0.0111102
160.88 -0.00989276
160.89 -0.00833862
160.9 -0.00655219
160.91 -0.00464642
160.92 -0.00273638
160.93 -0.000950867
160.94 0.000611973
160.95 0.00187296
160.96 0.002773
160.97 0.00327672
160.98 0.00337384
160.99 0.00307914
161 0.00243096
161.01 0.0014817
161.02 0.000310921
161.03 -0.000973516
161.04 -0.0022767
161.05 -0.00350446
161.06 -0.00456897
161.07 -0.00539391
161.08 -0.00591881
161.09 -0.00610253
161.1 -0.00590007
161.11 -0.00533532
161.12 -0.00444689
161.13 -0.00328464
161.14 -0.00191505
161.15 -0.00041707
161.16 0.00112264
161.17 0.00261492
161.18 0.00396989
161.19 0.00508882
161.2 0.0059209
161.21 0.00642089
161.22 0.00656316
161.23 0.00634295
161.24 0.00577637
161.25 0.00489925
161.26 0.00376472
161.27 0.00243368
161.28 0.000995989
161.29 -0.000459373
161.3 -0.00185203
161.31 -0.003108
161.32 -0.00416419
161.33 -0.00497213
161.34 -0.00550082
161.35 -0.00573833
161.36 -0.00566867
161.37 -0.00535055
161.38 -0.00483146
161.39 -0.00417189
161.4 -0.00344116
161.41 -0.00271264
161.42 -0.00205874
161.43 -0.00154585
161.44 -0.00123917
161.45 -0.00118573
161.46 -0.00139234
161.47 -0.00185645
161.48 -0.00255452
161.49 -0.00344291
161.5 -0.00446011
161.51 -0.00553013
161.52 -0.00656693
161.53 -0.00746257
161.54 -0.00812778
161.55 -0.00848443
161.56 -0.0084665
161.57 -0.00802704
161.58 -0.00714218
161.59 -0.00581391
161.6 -0.00407146
161.61 -0.00196462
161.62 0.000425889
161.63 0.00296738
161.64 0.00553581
161.65 0.00799754
161.66 0.0102162
161.67 0.0120602
161.68 0.01341
161.69 0.014165
161.7 0.0142047
161.71 0.0135069
161.72 0.0120906
161.73 0.00999084
161.74 0.00727825
161.75 0.00405732
161.76 0.000462044
161.77 -0.00334982
161.78 -0.00720255
161.79 -0.0108842
161.8 -0.0142133
161.81 -0.0170214
161.82 -0.0191609
161.83 -0.0205128
161.84 -0.0209933
161.85 -0.0205581
161.86 -0.0192061
161.87 -0.0169422
161.88 -0.0138694
161.89 -0.0101605
161.9 -0.00597983
161.91 -0.00151599
161.92 0.00302717
161.93 0.00744027
161.94 0.0115185
161.95 0.0150715
161.96 0.0178604
161.97 0.0198019
161.98 0.0208162
161.99 0.020863
162 0.019949
162.01 0.0181275
162.02 0.0154956
162.03 0.0121899
162.04 0.00836994
162.05 0.00424494
162.06 5.48412e-05
162.07 -0.0039884
162.08 -0.00768158
162.09 -0.0108402
162.1 -0.0133076
162.11 -0.0149623
162.12 -0.0157245
162.13 -0.0154934
162.14 -0.0143355
162.15 -0.0123404
162.16 -0.00961837
162.17 -0.00631607
162.18 -0.00260866
162.19 0.00130884
162.2 0.0052313
162.21 0.0089468
162.22 0.0122182
162.23 0.0148951
162.24 0.0168398
162.25 0.0179515
162.26 0.0181716
162.27 0.0174861
162.28 0.0159257
162.29 0.0135643
162.3 0.010485
162.31 0.00686825
162.32 0.00291708
162.33 -0.00117643
162.34 -0.00521479
162.35 -0.00900482
162.36 -0.012367
162.37 -0.0151439
162.38 -0.0172068
162.39 -0.0183844
162.4 -0.0187022
162.41 -0.0181593
162.42 -0.0167959
162.43 -0.0146912
162.44 -0.0119584
162.45 -0.00873942
162.46 -0.00519739
162.47 -0.00151018
162.48 0.00211921
162.49 0.00551047
162.5 0.00850466
162.51 0.0109649
162.52 0.0127825
162.53 0.0138813
162.54 0.0142211
162.55 0.0137982
162.56 0.0125922
162.57 0.0107293
162.58 0.00832288
162.59 0.00549902
162.6 0.00240071
162.61 -0.000819517
162.62 -0.00400684
162.63 -0.00701144
162.64 -0.00968404
162.65 -0.0118745
162.66 -0.0135156
162.67 -0.0145444
162.68 -0.0149275
162.69 -0.0146621
162.7 -0.0137746
162.71 -0.0123189
162.72 -0.0103728
162.73 -0.0080159
162.74 -0.00538767
162.75 -0.00262148
162.76 0.000159093
162.77 0.00283447
162.78 0.00529429
162.79 0.00744197
162.8 0.00919839
162.81 0.0105
162.82 0.011272
162.83 0.0115445
162.84 0.0113308
162.85 0.0106645
162.86 0.00959667
162.87 0.00819354
162.88 0.00653214
162.89 0.0046967
162.9 0.0027747
162.91 0.000863328
162.92 -0.000953851
162.93 -0.00260535
162.94 -0.00403089
162.95 -0.00518331
162.96 -0.00602981
162.97 -0.00655248
162.98 -0.00674813
162.99 -0.00660166
163 -0.00616657
163.01 -0.00548129
163.02 -0.00459054
163.03 -0.00354486
163.04 -0.00239814
163.05 -0.00120522
163.06 -1.96128e-05
163.07 0.00110505
163.08 0.00211654
163.09 0.0029823
163.1 0.00367381
163.11 0.00417113
163.12 0.00446314
163.13 0.00454739
163.14 0.00442973
163.15 0.00412356
163.16 0.00363857
163.17 0.00301233
163.18 0.00227908
163.19 0.00147214
163.2 0.000626071
163.21 -0.000224609
163.22 -0.00104668
163.23 -0.00180941
163.24 -0.00248355
163.25 -0.00303796
163.26 -0.00346315
163.27 -0.00374836
163.28 -0.00388883
163.29 -0.00388574
163.3 -0.00374609
163.31 -0.00348223
163.32 -0.00311133
163.33 -0.00265102
163.34 -0.00213034
163.35 -0.00157871
163.36 -0.00102286
163.37 -0.000488698
163.38 -9.3215e-08
163.39 0.000422274
163.4 0.000761927
163.41 0.00100719
163.42 0.00114337
163.43 0.00118101
163.44 0.00112781
163.45 0.000997182
163.46 0.000807485
163.47 0.000581119
163.48 0.000343279
163.49 0.000120535
163.5 -5.79305e-05
163.51 -0.000164258
163.52 -0.000180863
163.53 -9.31411e-05
163.54 0.000106959
163.55 0.000420031
163.56 0.000838691
163.57 0.00134749
163.58 0.00192327
163.59 0.0025361
163.6 0.00314396
163.61 0.00370645
163.62 0.00418239
163.63 0.00453171
163.64 0.00471783
163.65 0.00471
163.66 0.00448551
163.67 0.00402542
163.68 0.0033198
163.69 0.00239812
163.7 0.00128653
163.71 2.308e-05
163.72 -0.00134359
163.73 -0.00275611
163.74 -0.00415089
163.75 -0.00546105
163.76 -0.00660542
163.77 -0.0075203
163.78 -0.00815604
163.79 -0.00846943
163.8 -0.00843103
163.81 -0.00802727
163.82 -0.00726188
163.83 -0.00615646
163.84 -0.00474753
163.85 -0.00307971
163.86 -0.00124996
163.87 0.000659185
163.88 0.00255892
163.89 0.00435843
163.9 0.00596944
163.91 0.00731081
163.92 0.00831284
163.93 0.00889958
163.94 0.00903601
163.95 0.00873036
163.96 0.00799561
163.97 0.00686699
163.98 0.00540074
163.99 0.00367163
164 0.00176954
164.01 -0.000204864
164.02 -0.00213249
164.03 -0.00390148
164.04 -0.00541304
164.05 -0.00658036
164.06 -0.00733358
164.07 -0.00762386
164.08 -0.00742631
164.09 -0.00674182
164.1 -0.00558355
164.11 -0.00400284
164.12 -0.00210733
164.13 4.33564e-06
164.14 0.00222025
164.15 0.00442098
164.16 0.00648582
164.17 0.00829925
164.18 0.00975726
164.19 0.0107355
164.2 0.0111911
164.21 0.0111018
164.22 0.0104658
164.23 0.00931076
164.24 0.00769332
164.25 0.00569643
164.26 0.00342534
164.27 0.00100213
164.28 -0.00142649
164.29 -0.00371426
164.3 -0.00573065
164.31 -0.00735804
164.32 -0.00849836
164.33 -0.00907873
164.34 -0.009056
164.35 -0.00841963
164.36 -0.00716188
164.37 -0.00536388
164.38 -0.00314111
164.39 -0.000613394
164.4 0.00208001
164.41 0.00478754
164.42 0.00735325
164.43 0.00962516
164.44 0.0114616
164.45 0.0126855
164.46 0.0132532
164.47 0.0131134
164.48 0.0122522
164.49 0.0106944
164.5 0.00850342
164.51 0.00577836
164.52 0.0026499
164.53 -0.00072882
164.54 -0.00416174
164.55 -0.00745433
164.56 -0.0104269
164.57 -0.0129122
164.58 -0.0147646
164.59 -0.0158679
164.6 -0.0161422
164.61 -0.0155484
164.62 -0.0140245
164.63 -0.0116921
164.64 -0.00866349
164.65 -0.00507832
164.66 -0.00110718
164.67 0.00305622
164.68 0.0072045
164.69 0.0111268
164.7 0.014602
164.71 0.0174009
164.72 0.0194025
164.73 0.0204923
164.74 0.0205989
164.75 0.019698
164.76 0.0178142
164.77 0.0150201
164.78 0.0114334
164.79 0.00718164
164.8 0.00250308
164.81 -0.00236913
164.82 -0.0072089
164.83 -0.011791
164.84 -0.015902
164.85 -0.0193505
164.86 -0.0219763
164.87 -0.023646
164.88 -0.0242078
164.89 -0.0237247
164.9 -0.0222291
164.91 -0.019801
164.92 -0.0165629
164.93 -0.012674
164.94 -0.00832214
164.95 -0.00371393
164.96 0.000925657
164.97 0.00535738
164.98 0.00938382
164.99 0.0128324
165 0.0155628
165.01 0.017473
165.02 0.018504
165.03 0.0186412
165.04 0.0179144
165.05 0.0163339
165.06 0.0140922
165.07 0.0113387
165.08 0.00824039
165.09 0.00497642
165.1 0.00172818
165.11 -0.00132975
165.12 -0.00403846
165.13 -0.00624117
165.14 -0.00780995
165.15 -0.00871184
165.16 -0.00892179
165.17 -0.0084524
165.18 -0.00735206
165.19 -0.00570124
165.2 -0.00360727
165.21 -0.00119778
165.22 0.00138876
165.23 0.00398339
165.24 0.00644304
165.25 0.00864046
165.26 0.0104675
165.27 0.0118402
165.28 0.0127028
165.29 0.0130297
165.3 0.0128156
165.31 0.0120739
165.32 0.0109095
165.33 0.00940794
165.34 0.00766953
165.35 0.00580267
165.36 0.00391728
165.37 0.00211833
165.38 0.000499748
165.39 -0.000841963
165.4 -0.00185262
165.41 -0.00251335
165.42 -0.00282049
165.43 -0.0027943
165.44 -0.00247681
165.45 -0.00192849
165.46 -0.00122377
165.47 -0.000445918
165.48 0.000309583
165.49 0.000955667
165.5 0.00142043
165.51 0.00164655
165.52 0.00159512
165.53 0.00124817
165.54 0.000610007
165.55 -0.000292933
165.56 -0.0014202
165.57 -0.00269795
165.58 -0.00403457
165.59 -0.00534171
165.6 -0.00652925
165.61 -0.00751096
165.62 -0.00821011
165.63 -0.00856451
165.64 -0.00853075
165.65 -0.00805341
165.66 -0.00716867
165.67 -0.00591344
165.68 -0.00434281
165.69 -0.00253184
165.7 -0.0005716
165.71 0.00143584
165.72 0.0033831
165.73 0.0051559
165.74 0.0066347
165.75 0.00774895
165.76 0.00843547
165.77 0.0086544
165.78 0.00839191
165.79 0.00766137
165.8 0.00650314
165.81 0.00498271
165.82 0.00317617
165.83 0.00121264
165.84 -0.000782574
165.85 -0.00268753
165.86 -0.0043833
165.87 -0.00576059
165.88 -0.00672584
165.89 -0.00720665
165.9 -0.00714894
165.91 -0.00649725
165.92 -0.00531366
165.93 -0.00364539
165.94 -0.00156649
165.95 0.000825893
165.96 0.00341654
165.97 0.00607817
165.98 0.00867811
165.99 0.0110686
166 0.0131162
166.01 0.0147273
166.02 0.0158218
166.03 0.0163461
166.04 0.0162763
166.05 0.0156187
166.06 0.0144102
166.07 0.0127156
166.08 0.0105986
166.09 0.00821504
166.1 0.00569148
166.11 0.00315847
166.12 0.000744824
166.13 -0.00142941
166.14 -0.00325933
166.15 -0.00466078
166.16 -0.00555574
166.17 -0.00590247
166.18 -0.00573567
166.19 -0.00509051
166.2 -0.00402903
166.21 -0.00263637
166.22 -0.00101575
166.23 0.000717499
166.24 0.00244259
166.25 0.00402198
166.26 0.00534368
166.27 0.00631897
166.28 0.00687826
166.29 0.00697773
166.3 0.00660191
166.31 0.00576468
166.32 0.00450866
166.33 0.00289769
166.34 0.00102223
166.35 -0.000980113
166.36 -0.00298675
166.37 -0.00487221
166.38 -0.00651516
166.39 -0.00780534
166.4 -0.00864989
166.41 -0.00897878
166.42 -0.00871446
166.43 -0.00786177
166.44 -0.00646527
166.45 -0.00458046
166.46 -0.00229035
166.47 0.000298752
166.48 0.00306257
166.49 0.00586532
166.5 0.00856534
166.51 0.0109929
166.52 0.0130355
166.53 0.0145884
166.54 0.0155714
166.55 0.0159327
166.56 0.0156524
166.57 0.0147433
166.58 0.0132507
166.59 0.0112321
166.6 0.00880349
166.61 0.00611693
166.62 0.00331289
166.63 0.000537795
166.64 -0.00206355
166.65 -0.00435542
166.66 -0.0062182
166.67 -0.00755458
166.68 -0.00824099
166.69 -0.00828489
166.7 -0.00769474
166.71 -0.00650613
166.72 -0.00478607
166.73 -0.00262957
166.74 -0.000154722
166.75 0.00250325
166.76 0.0051954
166.77 0.00775301
166.78 0.0100341
166.79 0.0119118
166.8 0.0132797
166.81 0.0140572
166.82 0.0141937
166.83 0.0136708
166.84 0.0125038
166.85 0.0107048
166.86 0.00838992
166.87 0.0056841
166.88 0.00271656
166.89 -0.000370357
166.9 -0.0034283
166.91 -0.00631022
166.92 -0.00887756
166.93 -0.0109995
166.94 -0.01253
166.95 -0.013437
166.96 -0.0136821
166.97 -0.0132589
166.98 -0.0121934
166.99 -0.0105422
167 -0.00838972
167.01 -0.00584401
167.02 -0.00302479
167.03 -9.12828e-05
167.04 0.00280258
167.05 0.00551672
167.06 0.00792113
167.07 0.00990195
167.08 0.0113667
167.09 0.0122483
167.1 0.0125083
167.11 0.0120815
167.12 0.0110534
167.13 0.00948165
167.14 0.00744788
167.15 0.00505472
167.16 0.00242074
167.17 -0.000325185
167.18 -0.00304995
167.19 -0.0056118
167.2 -0.00786888
167.21 -0.00972528
167.22 -0.0110949
167.23 -0.0119146
167.24 -0.0121469
167.25 -0.0117812
167.26 -0.0108337
167.27 -0.00934649
167.28 -0.00735545
167.29 -0.0049858
167.3 -0.00235085
167.31 0.000434108
167.32 0.00324884
167.33 0.00597347
167.34 0.00849361
167.35 0.0107052
167.36 0.0125083
167.37 0.0138023
167.38 0.014572
167.39 0.014795
167.4 0.0144724
167.41 0.0136284
167.42 0.0123082
167.43 0.0105765
167.44 0.00851402
167.45 0.00620584
167.46 0.0037726
167.47 0.00132775
167.48 -0.00102414
167.49 -0.00318413
167.5 -0.00506277
167.51 -0.00658353
167.52 -0.00768561
167.53 -0.00832296
167.54 -0.00843216
167.55 -0.0080556
167.56 -0.00721414
167.57 -0.00594714
167.58 -0.00431067
167.59 -0.00237511
167.6 -0.000222169
167.61 0.00205833
167.62 0.00436905
167.63 0.00660286
167.64 0.00866788
167.65 0.0104806
167.66 0.011968
167.67 0.0130703
167.68 0.0137431
167.69 0.0139589
167.7 0.0137082
167.71 0.012963
167.72 0.0117898
167.73 0.0102396
167.74 0.00837358
167.75 0.00626479
167.76 0.00399525
167.77 0.00165269
167.78 -0.000672864
167.79 -0.00288682
167.8 -0.00489011
167.81 -0.00661714
167.82 -0.00800663
167.83 -0.00901168
167.84 -0.00960154
167.85 -0.00976284
167.86 -0.00950005
167.87 -0.00883519
167.88 -0.00778533
167.89 -0.00642787
167.9 -0.00484007
167.91 -0.00309904
167.92 -0.00128715
167.93 0.000511612
167.94 0.00221544
167.95 0.00374838
167.96 0.0050394
167.97 0.00601118
167.98 0.006648
167.99 0.00693152
168 0.00686139
168.01 0.00645522
168.02 0.00574784
168.03 0.00478959
168.04 0.00364394
168.05 0.00238281
168.06 0.00109793
168.07 -0.000124102
168.08 -0.00120371
168.09 -0.00206816
168.1 -0.00265539
168.11 -0.00291735
168.12 -0.00282269
168.13 -0.00235875
168.14 -0.00150125
168.15 -0.000316214
168.16 0.00114589
168.17 0.00281842
168.18 0.00462121
168.19 0.00646422
168.2 0.00825182
168.21 0.00988733
168.22 0.0112649
168.23 0.0122858
168.24 0.0128965
168.25 0.013047
168.26 0.0127079
168.27 0.011872
168.28 0.0105561
168.29 0.0087998
168.3 0.00666508
168.31 0.004218
168.32 0.00158596
168.33 -0.00111449
168.34 -0.00376576
168.35 -0.0062498
168.36 -0.00845355
168.37 -0.0102743
168.38 -0.0116244
168.39 -0.0124224
168.4 -0.0125926
168.41 -0.0121608
168.42 -0.0111402
168.43 -0.00957015
168.44 -0.00751516
168.45 -0.00506174
168.46 -0.00231486
168.47 0.000606591
168.48 0.00356964
168.49 0.0064281
168.5 0.00905511
168.51 0.0113349
168.52 0.0131669
168.53 0.01447
168.54 0.0151866
168.55 0.0152843
168.56 0.0147534
168.57 0.0135725
168.58 0.0118493
168.59 0.00965966
168.6 0.00709881
168.61 0.00427636
168.62 0.00131154
168.63 -0.0016723
168.64 -0.0045531
168.65 -0.00720015
168.66 -0.00949817
168.67 -0.0113749
168.68 -0.0127671
168.69 -0.0136339
168.7 -0.0139577
168.71 -0.0137445
168.72 -0.0130225
168.73 -0.0118398
168.74 -0.0102346
168.75 -0.00832512
168.76 -0.00620365
168.77 -0.00396276
168.78 -0.0016938
168.79 0.000517336
168.8 0.0025941
168.81 0.00447247
168.82 0.00609455
168.83 0.00741722
168.84 0.00844523
168.85 0.00918387
168.86 0.00965349
168.87 0.00988736
168.88 0.00992873
168.89 0.00982759
168.9 0.0096371
168.91 0.00941085
168.92 0.00920323
168.93 0.00905428
168.94 0.0089929
168.95 0.00903582
168.96 0.00918657
168.97 0.00943525
168.98 0.00975915
168.99 0.0101241
169 0.010481
169.01 0.0107762
169.02 0.0109556
169.03 0.0109664
169.04 0.0107598
169.05 0.0102944
169.06 0.00953912
169.07 0.00847581
169.08 0.00708417
169.09 0.00538475
169.1 0.00342118
169.11 0.00123985
169.12 -0.00109953
169.13 -0.00352611
169.14 -0.00596082
169.15 -0.00831967
169.16 -0.0105173
169.17 -0.0124406
169.18 -0.0140316
169.19 -0.0152261
169.2 -0.0159735
169.21 -0.0162388
169.22 -0.0160044
169.23 -0.0152714
169.24 -0.0140588
169.25 -0.0123885
169.26 -0.0103164
169.27 -0.00793666
169.28 -0.00533046
169.29 -0.00258605
169.3 0.000204524
169.31 0.00294914
169.32 0.00555916
169.33 0.00795287
169.34 0.010031
169.35 0.0117493
169.36 0.0130714
169.37 0.0139725
169.38 0.0144442
169.39 0.0144945
169.4 0.0141467
169.41 0.0134379
169.42 0.0124112
169.43 0.0111205
169.44 0.00965328
169.45 0.00807859
169.46 0.00646541
169.47 0.00487994
169.48 0.00338303
169.49 0.00202799
169.5 0.000858811
169.51 -7.57412e-05
169.52 -0.000760085
169.53 -0.00119347
169.54 -0.00137939
169.55 -0.00133165
169.56 -0.00107299
169.57 -0.000633546
169.58 -4.89839e-05
169.59 0.000642032
169.6 0.00139983
169.61 0.00217609
169.62 0.00293387
169.63 0.00364054
169.64 0.00426905
169.65 0.00479875
169.66 0.00521598
169.67 0.0055141
169.68 0.00568791
169.69 0.0057455
169.7 0.00570512
169.71 0.00558327
169.72 0.00539887
169.73 0.00517181
169.74 0.00492155
169.75 0.00466571
169.76 0.0044189
169.77 0.00419398
169.78 0.00399488
169.79 0.00382096
169.8 0.00366656
169.81 0.00352121
169.82 0.00337039
169.83 0.00319646
169.84 0.00297986
169.85 0.0026979
169.86 0.00232724
169.87 0.00185644
169.88 0.00127448
169.89 0.000576068
169.9 -0.000237278
169.91 -0.00115652
169.92 -0.00216474
169.93 -0.00323718
169.94 -0.00434122
169.95 -0.00543203
169.96 -0.00646447
169.97 -0.00739122
169.98 -0.00816424
169.99 -0.00873704
170 -0.00906711
170.01 -0.00911822
170.02 -0.0088573
170.03 -0.00824712
170.04 -0.00731015
170.05 -0.00605833
170.06 -0.00451773
170.07 -0.00272829
170.08 -0.000743026
170.09 0.00137343
170.1 0.00354696
170.11 0.00569031
170.12 0.00770909
170.13 0.00952038
170.14 0.0110445
170.15 0.01221
170.16 0.0129571
170.17 0.0132412
170.18 0.0130351
170.19 0.0123305
170.2 0.0110996
170.21 0.0094283
170.22 0.00737633
170.23 0.00502187
170.24 0.00245881
170.25 -0.000206733
170.26 -0.00286069
170.27 -0.0053857
170.28 -0.0076516
170.29 -0.00953313
170.3 -0.0109514
170.31 -0.0118313
170.32 -0.0121196
170.33 -0.0117874
170.34 -0.0108327
170.35 -0.00928071
170.36 -0.00718385
170.37 -0.00459053
170.38 -0.00164411
170.39 0.00152652
170.4 0.00478694
170.41 0.00799637
170.42 0.011014
170.43 0.0137051
170.44 0.0159478
170.45 0.0176221
170.46 0.0186135
170.47 0.0189156
170.48 0.0185132
170.49 0.017423
170.5 0.0156935
170.51 0.0134026
170.52 0.0106549
170.53 0.00757672
170.54 0.00430881
170.55 0.00102728
170.56 -0.00210846
170.57 -0.00495073
170.58 -0.00736554
170.59 -0.00923897
170.6 -0.0104828
170.61 -0.0110391
170.62 -0.0108761
170.63 -0.00995505
170.64 -0.00838897
170.65 -0.0062618
170.66 -0.00368542
170.67 -0.000794384
170.68 0.00226045
170.69 0.00531915
170.7 0.00822044
170.71 0.010787
170.72 0.0128643
170.73 0.0143539
170.74 0.0151712
170.75 0.0152643
170.76 0.014617
170.77 0.0132493
170.78 0.0112176
170.79 0.00861106
170.8 0.00552073
170.81 0.00214121
170.82 -0.0013635
170.83 -0.00482519
170.84 -0.00807696
170.85 -0.0109613
170.86 -0.0133379
170.87 -0.0150901
170.88 -0.0161057
170.89 -0.0163088
170.9 -0.0157362
170.91 -0.0144178
170.92 -0.0124194
170.93 -0.00983894
170.94 -0.00680226
170.95 -0.00345648
170.96 3.69916e-05
170.97 0.0034966
170.98 0.00674218
170.99 0.0096224
171 0.0120044
171.01 0.013781
171.02 0.0148753
171.03 0.0152444
171.04 0.0148813
171.05 0.0138029
171.06 0.0120435
171.07 0.00975549
171.08 0.00706146
171.09 0.00410119
171.1 0.00102456
171.11 -0.00201603
171.12 -0.00487325
171.13 -0.00741207
171.14 -0.00948592
171.15 -0.0110047
171.16 -0.0119286
171.17 -0.0122327
171.18 -0.0119238
171.19 -0.011039
171.2 -0.00964361
171.21 -0.0078267
171.22 -0.00569547
171.23 -0.00336476
171.24 -0.000988087
171.25 0.00131093
171.26 0.00341783
171.27 0.00523299
171.28 0.00667645
171.29 0.00769157
171.3 0.00824725
171.31 0.00832043
171.32 0.00793305
171.33 0.00715957
171.34 0.00606922
171.35 0.0047459
171.36 0.00328287
171.37 0.00177708
171.38 0.000323396
171.39 -0.000990849
171.4 -0.00206865
171.41 -0.00286407
171.42 -0.00334653
171.43 -0.00350405
171.44 -0.00334642
171.45 -0.00290389
171.46 -0.00222485
171.47 -0.00137235
171.48 -0.000419436
171.49 0.000546786
171.5 0.00144169
171.51 0.00219282
171.52 0.00273838
171.53 0.00303118
171.54 0.00304153
171.55 0.00275918
171.56 0.00219398
171.57 0.00136185
171.58 0.000326561
171.59 -0.000839929
171.6 -0.00206311
171.61 -0.00326339
171.62 -0.00436108
171.63 -0.00528144
171.64 -0.0059595
171.65 -0.00634081
171.66 -0.00636645
171.67 -0.00605296
171.68 -0.00541281
171.69 -0.00447918
171.7 -0.00330432
171.71 -0.00195666
171.72 -0.000516993
171.73 0.000926221
171.74 0.00227311
171.75 0.00342621
171.76 0.00431336
171.77 0.00487255
171.78 0.00506042
171.79 0.00485513
171.8 0.00425816
171.81 0.00329472
171.82 0.00201281
171.83 0.000466226
171.84 -0.00122931
171.85 -0.00297311
171.86 -0.0046605
171.87 -0.00618763
171.88 -0.00745756
171.89 -0.00838601
171.9 -0.00890664
171.91 -0.00895907
171.92 -0.00851347
171.93 -0.00761214
171.94 -0.0062969
171.95 -0.00463482
171.96 -0.00271499
171.97 -0.000643953
171.98 0.00145989
171.99 0.00347275
172 0.00524791
172.01 0.00667379
172.02 0.00766111
172.03 0.00813847
172.04 0.00806157
172.05 0.00741641
172.06 0.00622084
172.07 0.00452448
172.08 0.00240112
172.09 -4.73909e-05
172.1 -0.00265876
172.11 -0.00528845
172.12 -0.00778626
172.13 -0.0100042
172.14 -0.0118043
172.15 -0.0130664
172.16 -0.0136948
172.17 -0.0135814
172.18 -0.0127117
172.19 -0.0111258
172.2 -0.00887521
172.21 -0.00604653
172.22 -0.00275788
172.23 0.000846623
172.24 0.00460364
172.25 0.00833778
172.26 0.0118374
172.27 0.014939
172.28 0.0174911
172.29 0.0193671
172.3 0.0204716
172.31 0.0207455
172.32 0.0201688
172.33 0.0187625
172.34 0.0165589
172.35 0.0136665
172.36 0.0102619
172.37 0.00650619
172.38 0.00257718
172.39 -0.00133992
172.4 -0.0050613
172.41 -0.00841355
172.42 -0.0112421
172.43 -0.0133573
172.44 -0.0147062
172.45 -0.0152479
172.46 -0.0149731
172.47 -0.0139125
172.48 -0.0121348
172.49 -0.00974303
172.5 -0.00686874
172.51 -0.00366135
172.52 -0.00030145
172.53 0.00301787
172.54 0.0061298
172.55 0.00888144
172.56 0.0111412
172.57 0.0128049
172.58 0.0138006
172.59 0.0140915
172.6 0.0136328
172.61 0.0124956
172.62 0.0107752
172.63 0.00857436
172.64 0.00601738
172.65 0.00324307
172.66 0.000397216
172.67 -0.00237517
172.68 -0.00493343
172.69 -0.0071222
172.7 -0.00886649
172.71 -0.0100991
172.72 -0.0107828
172.73 -0.0109109
172.74 -0.0105075
172.75 -0.00962467
172.76 -0.00833892
172.77 -0.00673671
172.78 -0.00494513
172.79 -0.0030946
172.8 -0.00130131
172.81 0.000326472
172.82 0.00169434
172.83 0.00272683
172.84 0.00337126
172.85 0.00360034
172.86 0.0033779
172.87 0.00277127
172.88 0.00183656
172.89 0.000647934
172.9 -0.000705417
172.91 -0.00212466
172.92 -0.00350724
172.93 -0.00475295
172.94 -0.00575875
172.95 -0.00643175
172.96 -0.00673088
172.97 -0.00662314
172.98 -0.00609966
172.99 -0.00517618
173 -0.00389214
173.01 -0.00230844
173.02 -0.000504057
173.03 0.00143025
173.04 0.00337578
173.05 0.00522666
173.06 0.00688375
173.07 0.00825777
173.08 0.00927412
173.09 0.00987699
173.1 0.0100323
173.11 0.00972076
173.12 0.00893574
173.13 0.00775374
173.14 0.00623754
173.15 0.00446701
173.16 0.00253476
173.17 0.000541198
173.18 -0.00141083
173.19 -0.00322144
173.2 -0.00478034
173.21 -0.00600779
173.22 -0.00685542
173.23 -0.00728703
173.24 -0.00728887
173.25 -0.00687006
173.26 -0.00606192
173.27 -0.00491611
173.28 -0.00350101
173.29 -0.00189249
173.3 -0.000207214
173.31 0.00145822
173.32 0.00300914
173.33 0.00435757
173.34 0.00542662
173.35 0.00615424
173.36 0.00649615
173.37 0.00640975
173.38 0.00589057
173.39 0.00498126
173.4 0.0037225
173.41 0.00217176
173.42 0.000400178
173.43 -0.00151103
173.44 -0.00347463
173.45 -0.00540153
173.46 -0.00718797
173.47 -0.00875674
173.48 -0.0100417
173.49 -0.0109885
173.5 -0.0115584
173.51 -0.0117292
173.52 -0.0114956
173.53 -0.010869
173.54 -0.00986741
173.55 -0.00852499
173.56 -0.00692024
173.57 -0.00511566
173.58 -0.00317886
173.59 -0.00117968
173.6 0.00081268
173.61 0.00273223
173.62 0.00451843
173.63 0.00610239
173.64 0.00744392
173.65 0.00851575
173.66 0.00929558
173.67 0.00977117
173.68 0.00993989
173.69 0.00980807
173.7 0.00939002
173.71 0.00870413
173.72 0.00776443
173.73 0.00662541
173.74 0.00532369
173.75 0.0038986
173.76 0.00239135
173.77 0.000844387
173.78 -0.000699261
173.79 -0.00219655
173.8 -0.00359818
173.81 -0.00485888
173.82 -0.00594393
173.83 -0.00681762
173.84 -0.00744818
173.85 -0.00780888
173.86 -0.00787918
173.87 -0.00764589
173.88 -0.00710436
173.89 -0.00623315
173.9 -0.00507753
173.91 -0.00366744
173.92 -0.00204304
173.93 -0.000255275
173.94 0.00163505
173.95 0.00355867
173.96 0.00543987
173.97 0.00719135
173.98 0.00871834
173.99 0.00995105
174 0.0108185
174.01 0.0112599
174.02 0.0112276
174.03 0.0106904
174.04 0.00963583
174.05 0.00807203
174.06 0.00599607
174.07 0.00349471
174.08 0.000653012
174.09 -0.00243499
174.1 -0.00566055
174.11 -0.00890422
174.12 -0.0120405
174.13 -0.0149431
174.14 -0.0174802
174.15 -0.0195051
174.16 -0.0209532
174.17 -0.0217539
174.18 -0.0218613
174.19 -0.0212573
174.2 -0.0199527
174.21 -0.0179879
174.22 -0.0154312
174.23 -0.0123543
174.24 -0.00890279
174.25 -0.00523023
174.26 -0.00148378
174.27 0.00218578
174.28 0.00563065
174.29 0.00871257
174.3 0.0113091
174.31 0.0133155
174.32 0.0145967
174.33 0.0151678
174.34 0.0150221
174.35 0.0141847
174.36 0.012711
174.37 0.0106843
174.38 0.0082111
174.39 0.00541656
174.4 0.00243641
174.41 -0.000568496
174.42 -0.00344977
174.43 -0.0060771
174.44 -0.00833604
174.45 -0.0101333
174.46 -0.0114007
174.47 -0.0120983
174.48 -0.0122157
174.49 -0.0117283
174.5 -0.0107326
174.51 -0.0093108
174.52 -0.00755862
174.53 -0.00558538
174.54 -0.00350809
174.55 -0.00144502
174.56 0.000490563
174.57 0.00218707
174.58 0.00353959
174.59 0.00450424
174.6 0.00504548
174.61 0.00515349
174.62 0.00484407
174.63 0.00415717
174.64 0.00315413
174.65 0.00191376
174.66 0.000524349
174.67 -0.00089885
174.68 -0.00225364
174.69 -0.00344768
174.7 -0.00440032
174.71 -0.00504731
174.72 -0.00534452
174.73 -0.00527046
174.74 -0.00482295
174.75 -0.00401012
174.76 -0.00291496
174.77 -0.00160906
174.78 -0.000178125
174.79 0.00128309
174.8 0.00267637
174.81 0.00390589
174.82 0.00488396
174.83 0.00551598
174.84 0.00574562
174.85 0.00555797
174.86 0.00494874
174.87 0.00393879
174.88 0.00257335
174.89 0.000919915
174.9 -0.000935235
174.91 -0.00289149
174.92 -0.0048281
174.93 -0.00662482
174.94 -0.00817462
174.95 -0.00938148
174.96 -0.010166
174.97 -0.0104698
174.98 -0.0102597
174.99 -0.00952944
175 -0.0082841
175.01 -0.00657341
175.02 -0.00450575
175.03 -0.00218197
175.04 0.000281291
175.05 0.0027575
175.06 0.00511656
175.07 0.00723154
175.08 0.00898515
175.09 0.0102341
175.1 0.0109218
175.11 0.0110086
175.12 0.0104756
175.13 0.00933433
175.14 0.00762601
175.15 0.00542001
175.16 0.00281041
175.17 -9.17535e-05
175.18 -0.00315047
175.19 -0.00620784
175.2 -0.00912588
175.21 -0.0117735
175.22 -0.0140329
175.23 -0.0158049
175.24 -0.017014
175.25 -0.0176113
175.26 -0.017539
175.27 -0.0168298
175.28 -0.0155495
175.29 -0.0137682
175.3 -0.0115776
175.31 -0.00908581
175.32 -0.00641193
175.33 -0.0036798
175.34 -0.00101299
175.35 0.00144882
175.36 0.0036151
175.37 0.00540673
175.38 0.00676677
175.39 0.00766263
175.4 0.0080868
175.41 0.00805634
175.42 0.00761109
175.43 0.00679807
175.44 0.00570312
175.45 0.00443148
175.46 0.00307592
175.47 0.00172833
175.48 0.000474565
175.49 -0.000610205
175.5 -0.0014655
175.51 -0.00204855
175.52 -0.00231096
175.53 -0.00227575
175.54 -0.00196792
175.55 -0.00142768
175.56 -0.000710427
175.57 0.000116895
175.58 0.000980076
175.59 0.00180223
175.6 0.00250287
175.61 0.00300083
175.62 0.00325008
175.63 0.00321153
175.64 0.00286354
175.65 0.00220338
175.66 0.00124747
175.67 3.06549e-05
175.68 -0.00139559
175.69 -0.00297045
175.7 -0.00460269
175.71 -0.00620603
175.72 -0.00769688
175.73 -0.00899547
175.74 -0.0100301
175.75 -0.010741
175.76 -0.0110836
175.77 -0.011025
175.78 -0.0105323
175.79 -0.00965379
175.8 -0.00842473
175.81 -0.00689747
175.82 -0.00513886
175.83 -0.00322699
175.84 -0.00124741
175.85 0.000711065
175.86 0.00254998
175.87 0.00417915
175.88 0.00553233
175.89 0.00655151
175.9 0.00719418
175.91 0.007435
175.92 0.00726663
175.93 0.00669961
175.94 0.00576151
175.95 0.00446979
175.96 0.00291685
175.97 0.00117073
175.98 -0.000694972
175.99 -0.00260416
176 -0.00448169
176.01 -0.00625648
176.02 -0.00786443
176.03 -0.00924048
176.04 -0.0103325
176.05 -0.0111252
176.06 -0.0116031
176.07 -0.0117636
176.08 -0.0116158
176.09 -0.0111796
176.1 -0.0104834
176.11 -0.00956306
176.12 -0.00844822
176.13 -0.00719797
176.14 -0.00585955
176.15 -0.00447594
176.16 -0.00308743
176.17 -0.00173055
176.18 -0.000437301
176.19 0.000765146
176.2 0.00185157
176.21 0.00279667
176.22 0.00359651
176.23 0.0042424
176.24 0.00472864
176.25 0.00505188
176.26 0.00521069
176.27 0.00520521
176.28 0.00503697
176.29 0.00469927
176.3 0.00420233
176.31 0.00355844
176.32 0.00277737
176.33 0.00187198
176.34 0.000858734
176.35 -0.000241951
176.36 -0.00140554
176.37 -0.00260342
176.38 -0.00379984
176.39 -0.00495617
176.4 -0.0060345
176.41 -0.00699637
176.42 -0.00780434
176.43 -0.00842365
176.44 -0.00882401
176.45 -0.00898132
176.46 -0.00886685
176.47 -0.00847369
176.48 -0.00782009
176.49 -0.00692276
176.5 -0.00580935
176.51 -0.00451789
176.52 -0.0030957
176.53 -0.00159778
176.54 -8.47429e-05
176.55 0.00136989
176.56 0.00270059
176.57 0.00384735
176.58 0.00475594
176.59 0.005381
176.6 0.00568838
176.61 0.00565714
176.62 0.00528082
176.63 0.00455852
176.64 0.00350879
176.65 0.0021946
176.66 0.000670328
176.67 -0.000999284
176.68 -0.0027419
176.69 -0.00448069
176.7 -0.00613779
176.71 -0.0076377
176.72 -0.00889034
176.73 -0.0098411
176.74 -0.0104499
176.75 -0.0106854
176.76 -0.0105322
176.77 -0.00999119
176.78 -0.00907955
176.79 -0.0078299
176.8 -0.00628511
176.81 -0.0044955
176.82 -0.00255201
176.83 -0.000528097
176.84 0.00150116
176.85 0.00346235
176.86 0.00528686
176.87 0.00691366
176.88 0.00829169
176.89 0.00936426
176.9 0.0101082
176.91 0.0105253
176.92 0.010619
176.93 0.0104048
176.94 0.00990905
176.95 0.00916658
176.96 0.00821893
176.97 0.00711166
176.98 0.00588581
176.99 0.00460168
177 0.00330195
177.01 0.00202424
177.02 0.0008
177.03 -0.000346282
177.04 -0.0013973
177.05 -0.00234268
177.06 -0.00317404
177.07 -0.00389147
177.08 -0.00450676
177.09 -0.0050277
177.1 -0.00546266
177.11 -0.00581921
177.12 -0.00610305
177.13 -0.00631707
177.14 -0.00646092
177.15 -0.00652456
177.16 -0.00650495
177.17 -0.00639391
177.18 -0.00618122
177.19 -0.00585711
177.2 -0.00541375
177.21 -0.00484674
177.22 -0.00415651
177.23 -0.00334701
177.24 -0.00242892
177.25 -0.00143261
177.26 -0.00038733
177.27 0.000671303
177.28 0.00170256
177.29 0.00266225
177.3 0.00350479
177.31 0.0041855
177.32 0.00464794
177.33 0.00486054
177.34 0.00480504
177.35 0.0044675
177.36 0.00384629
177.37 0.00295288
177.38 0.0018122
177.39 0.000462069
177.4 -0.00104871
177.41 -0.00266179
177.42 -0.00429599
177.43 -0.00587973
177.44 -0.00734134
177.45 -0.00861267
177.46 -0.00963253
177.47 -0.01035
177.48 -0.0107273
177.49 -0.0107244
177.5 -0.0103377
177.51 -0.00960063
177.52 -0.00854657
177.53 -0.00722479
177.54 -0.00569813
177.55 -0.0040401
177.56 -0.00233128
177.57 -0.000655336
177.58 0.000888404
177.59 0.00222705
177.6 0.00329702
177.61 0.00404787
177.62 0.00444596
177.63 0.00447637
177.64 0.00414394
177.65 0.00347319
177.66 0.00249982
177.67 0.00128515
177.68 -7.69247e-05
177.69 -0.00150183
177.7 -0.0029007
177.71 -0.00418513
177.72 -0.00527186
177.73 -0.00608732
177.74 -0.00657173
177.75 -0.00665401
177.76 -0.00633046
177.77 -0.00561334
177.78 -0.00452789
177.79 -0.00311997
177.8 -0.00145398
177.81 0.000390254
177.82 0.00232131
177.83 0.00423874
177.84 0.00602475
177.85 0.00758552
177.86 0.0088344
177.87 0.00969848
177.88 0.0101224
177.89 0.010071
177.9 0.00953161
177.91 0.0085143
177.92 0.00703
177.93 0.00514931
177.94 0.00296499
177.95 0.000566578
177.96 -0.00194716
177.97 -0.00447305
177.98 -0.00690854
177.99 -0.00915668
178 -0.0111303
178.01 -0.0127196
178.02 -0.0139011
178.03 -0.0146446
178.04 -0.0149409
178.05 -0.014802
178.06 -0.0142593
178.07 -0.0133616
178.08 -0.012172
178.09 -0.0107585
178.1 -0.00920886
178.11 -0.007615
178.12 -0.0060535
178.13 -0.00459277
178.14 -0.00328969
178.15 -0.0021868
178.16 -0.00131058
178.17 -0.000670631
178.18 -0.000276337
178.19 -8.59212e-05
178.2 -5.76209e-05
178.21 -0.000143586
178.22 -0.000290194
178.23 -0.000441995
178.24 -0.000545737
178.25 -0.000554208
178.26 -0.00042571
178.27 -0.000126564
178.28 0.000340983
178.29 0.000968727
178.3 0.00173308
178.31 0.00259626
178.32 0.00350843
178.33 0.00441063
178.34 0.00523839
178.35 0.00591259
178.36 0.00636905
178.37 0.00655872
178.38 0.0064402
178.39 0.0059873
178.4 0.00519149
178.41 0.00406333
178.42 0.00263287
178.43 0.00094718
178.44 -0.000934225
178.45 -0.00290803
178.46 -0.00488272
178.47 -0.0067623
178.48 -0.00845133
178.49 -0.00986001
178.5 -0.0109091
178.51 -0.0115346
178.52 -0.0116673
178.53 -0.0112858
178.54 -0.0104181
178.55 -0.00909503
178.56 -0.00737064
178.57 -0.00532004
178.58 -0.00303603
178.59 -0.000624757
178.6 0.00179939
178.61 0.00410013
178.62 0.00616403
178.63 0.00789032
178.64 0.00919323
178.65 0.0100071
178.66 0.0102897
178.67 0.0100248
178.68 0.00922258
178.69 0.00790534
178.7 0.00613176
178.71 0.00401922
178.72 0.00167076
178.73 -0.000799881
178.74 -0.00327409
178.75 -0.00563438
178.76 -0.00777042
178.77 -0.00958461
178.78 -0.0109635
178.79 -0.0118672
178.8 -0.0122771
178.81 -0.0121919
178.82 -0.011636
178.83 -0.0106583
178.84 -0.00932892
178.85 -0.00773511
178.86 -0.00597567
178.87 -0.00416491
178.88 -0.00242038
178.89 -0.00084126
178.9 0.000485681
178.91 0.00149092
178.92 0.00212599
178.93 0.00236616
178.94 0.00221177
178.95 0.00167007
178.96 0.000806026
178.97 -0.000292686
178.98 -0.00153663
178.99 -0.00282609
179 -0.00405683
179.01 -0.00512621
179.02 -0.00593924
179.03 -0.00641345
179.04 -0.00644538
179.05 -0.00603265
179.06 -0.00516633
179.07 -0.00386452
179.08 -0.00217194
179.09 -0.000158155
179.1 0.00208569
179.11 0.00445124
179.12 0.00681301
179.13 0.00902831
179.14 0.0109748
179.15 0.012539
179.16 0.0136229
179.17 0.01415
179.18 0.0140691
179.19 0.0133582
179.2 0.0120259
179.21 0.0100701
179.22 0.00760979
179.23 0.00475416
179.24 0.00162545
179.25 -0.00163883
179.26 -0.00489248
179.27 -0.00798768
179.28 -0.0107822
179.29 -0.013132
179.3 -0.0148939
179.31 -0.0160191
179.32 -0.0164582
179.33 -0.016194
179.34 -0.0152427
179.35 -0.0136532
179.36 -0.0115046
179.37 -0.00890264
179.38 -0.00596269
179.39 -0.00285602
179.4 0.000256733
179.41 0.00322489
179.42 0.00590591
179.43 0.00817222
179.44 0.00991723
179.45 0.0110604
179.46 0.0115439
179.47 0.0113006
179.48 0.0104076
179.49 0.00891724
179.5 0.00691025
179.51 0.00449114
179.52 0.00178292
179.53 -0.00107913
179.54 -0.00395422
179.55 -0.00668997
179.56 -0.0091414
179.57 -0.0112032
179.58 -0.0127851
179.59 -0.0138225
179.6 -0.0142791
179.61 -0.0141483
179.62 -0.0134529
179.63 -0.0122437
179.64 -0.010566
179.65 -0.00856333
179.66 -0.00635236
179.67 -0.00405513
179.68 -0.0017952
179.69 0.000308559
179.7 0.00214803
179.71 0.00363111
179.72 0.00466981
179.73 0.0052014
179.74 0.00523677
179.75 0.00478702
179.76 0.00388885
179.77 0.00260231
179.78 0.00100736
179.79 -0.000800473
179.8 -0.00271512
179.81 -0.00461695
179.82 -0.00638578
179.83 -0.00792052
179.84 -0.00913257
179.85 -0.0099504
179.86 -0.0103229
179.87 -0.0102216
179.88 -0.00964206
179.89 -0.00859564
179.9 -0.00710681
179.91 -0.00527617
179.92 -0.00318548
179.93 -0.000927968
179.94 0.00139641
179.95 0.00368591
179.96 0.00584195
179.97 0.00777377
179.98 0.00938129
179.99 0.010603
180 0.0114101
180.01 0.0117823
180.02 0.0117199
180.03 0.0112432
180.04 0.0103905
180.05 0.0092159
180.06 0.00778561
180.07 0.00616712
180.08 0.00446361
180.09 0.00275554
180.1 0.00111895
180.11 -0.00037814
180.12 -0.00167879
180.13 -0.00273954
180.14 -0.00353209
180.15 -0.00403232
180.16 -0.00424352
180.17 -0.00420223
180.18 -0.00394314
180.19 -0.00351134
180.2 -0.0029594
180.21 -0.00234422
180.22 -0.00172374
180.23 -0.00115362
180.24 -0.000696006
180.25 -0.000388541
180.26 -0.000259354
180.27 -0.000325868
180.28 -0.000592758
180.29 -0.00105194
180.3 -0.00168323
180.31 -0.0024556
180.32 -0.00333039
180.33 -0.00425717
180.34 -0.00517801
180.35 -0.00604067
180.36 -0.00679493
180.37 -0.00739514
180.38 -0.00780248
180.39 -0.00798684
180.4 -0.00792825
180.41 -0.00760124
180.42 -0.00701971
180.43 -0.0062068
180.44 -0.00518849
180.45 -0.00399939
180.46 -0.00268102
180.47 -0.00127975
180.48 0.000155364
180.49 0.00157403
180.5 0.00291939
180.51 0.00415057
180.52 0.0052307
180.53 0.00613018
180.54 0.00682762
180.55 0.00731039
180.56 0.00757467
180.57 0.00762517
180.58 0.00746525
180.59 0.00711893
180.6 0.00662098
180.61 0.00600116
180.62 0.00529143
180.63 0.00452441
180.64 0.00373198
180.65 0.00294391
180.66 0.00218681
180.67 0.00148976
180.68 0.000866785
180.69 0.000329521
180.7 -0.000115066
180.71 -0.000464643
180.72 -0.000721022
180.73 -0.000889512
180.74 -0.000978164
180.75 -0.000994902
180.76 -0.000950728
180.77 -0.000860997
180.78 -0.000736423
180.79 -0.000586597
180.8 -0.000419595
180.81 -0.000241748
180.82 -5.75689e-05
180.83 0.000130162
180.84 0.000320341
180.85 0.000512867
180.86 0.000708456
180.87 0.00090803
180.88 0.00111221
180.89 0.00132089
180.9 0.00153283
180.91 0.00174542
180.92 0.0019543
180.93 0.00215233
180.94 0.00233216
180.95 0.0024848
180.96 0.00260036
180.97 0.00266844
180.98 0.00267861
180.99 0.00262098
181 0.00248675
181.01 0.00226348
181.02 0.00194788
181.03 0.00154115
181.04 0.00104449
181.05 0.000462263
181.06 -0.000197841
181.07 -0.000924908
181.08 -0.00170494
181.09 -0.0025212
181.1 -0.00335392
181.11 -0.00417868
181.12 -0.00497295
181.13 -0.00571377
181.14 -0.00637845
181.15 -0.00694529
181.16 -0.00739436
181.17 -0.00770811
181.18 -0.00786508
181.19 -0.00785242
181.2 -0.00767226
181.21 -0.00732362
181.22 -0.00681034
181.23 -0.00614117
181.24 -0.00532978
181.25 -0.00439446
181.26 -0.00335785
181.27 -0.00224272
181.28 -0.00108714
181.29 7.55815e-05
181.3 0.00121167
181.31 0.00228707
181.32 0.0032685
181.33 0.00412451
181.34 0.00482657
181.35 0.00534456
181.36 0.00564955
181.37 0.00574128
181.38 0.00561396
181.39 0.00526885
181.4 0.00471445
181.41 0.00396654
181.42 0.00304783
181.43 0.00198747
181.44 0.000815728
181.45 -0.00041903
181.46 -0.00167082
181.47 -0.00289499
181.48 -0.00404697
181.49 -0.00508394
181.5 -0.00596641
181.51 -0.00665982
181.52 -0.00713296
181.53 -0.00734721
181.54 -0.0073107
181.55 -0.00702258
181.56 -0.00649145
181.57 -0.00573517
181.58 -0.0047803
181.59 -0.00366121
181.6 -0.00241879
181.61 -0.00109758
181.62 0.000246294
181.63 0.00155947
181.64 0.00279296
181.65 0.00390109
181.66 0.00484339
181.67 0.00558624
181.68 0.0061043
181.69 0.00638153
181.7 0.00638974
181.71 0.00615683
181.72 0.00569999
181.73 0.00504462
181.74 0.00422396
181.75 0.00327756
181.76 0.00224942
181.77 0.00118601
181.78 0.000136227
181.79 -0.000848756
181.8 -0.00173017
181.81 -0.00247439
181.82 -0.00305543
181.83 -0.00345604
181.84 -0.0036684
181.85 -0.00369426
181.86 -0.00354471
181.87 -0.00322979
181.88 -0.00278908
181.89 -0.0022596
181.9 -0.001679
181.91 -0.00108642
181.92 -0.00052036
181.93 -1.6618e-05
181.94 0.000393656
181.95 0.00068283
181.96 0.000825659
181.97 0.000824815
181.98 0.000683129
181.99 0.000412444
182 3.29845e-05
182.01 -0.000427733
182.02 -0.000936381
182.03 -0.00145564
182.04 -0.00194211
182.05 -0.00235338
182.06 -0.00265507
182.07 -0.0028168
182.08 -0.00281515
182.09 -0.00263511
182.1 -0.0022712
182.11 -0.00172799
182.12 -0.00101952
182.13 -0.000161644
182.14 0.000796208
182.15 0.00181231
182.16 0.00284015
182.17 0.00383065
182.18 0.00473465
182.19 0.00550532
182.2 0.00610062
182.21 0.00647492
182.22 0.0065989
182.23 0.00647036
182.24 0.0060881
182.25 0.00546287
182.26 0.00461719
182.27 0.00358447
182.28 0.00240765
182.29 0.00113735
182.3 -0.00016855
182.31 -0.00144313
182.32 -0.0026276
182.33 -0.00366694
182.34 -0.00451213
182.35 -0.00512258
182.36 -0.00546808
182.37 -0.00553034
182.38 -0.00529586
182.39 -0.00476468
182.4 -0.00397964
182.41 -0.00297646
182.42 -0.00180107
182.43 -0.000507585
182.44 0.000844206
182.45 0.00219152
182.46 0.00347149
182.47 0.00461151
182.48 0.00555792
182.49 0.00627023
182.5 0.0067152
182.51 0.00687186
182.52 0.00673248
182.53 0.0063029
182.54 0.00560226
182.55 0.00465955
182.56 0.00350932
182.57 0.00222389
182.58 0.000862527
182.59 -0.000512239
182.6 -0.00183747
182.61 -0.00305262
182.62 -0.00410226
182.63 -0.0049385
182.64 -0.00550835
182.65 -0.00578603
182.66 -0.00577078
182.67 -0.00546412
182.68 -0.00488039
182.69 -0.00404592
182.7 -0.00299776
182.71 -0.00178199
182.72 -0.00045157
182.73 0.000935801
182.74 0.00231079
182.75 0.00361508
182.76 0.0047942
182.77 0.00579961
182.78 0.00659063
182.79 0.00713596
182.8 0.00741471
182.81 0.00740681
182.82 0.0071095
182.83 0.00655311
182.84 0.00576167
182.85 0.00476741
182.86 0.0036092
182.87 0.00233067
182.88 0.000978214
182.89 -0.000400966
182.9 -0.00175599
182.91 -0.00304147
182.92 -0.00422062
182.93 -0.00526236
182.94 -0.00614253
182.95 -0.00684442
182.96 -0.00735886
182.97 -0.007684
182.98 -0.00782105
182.99 -0.00777376
183 -0.00757229
183.01 -0.00723684
183.02 -0.0067897
183.03 -0.00625406
183.04 -0.00565276
183.05 -0.00500729
183.06 -0.00433692
183.07 -0.00365829
183.08 -0.00298568
183.09 -0.00232808
183.1 -0.00169091
183.11 -0.0010766
183.12 -0.000485118
183.13 8.5365e-05
183.14 0.000637769
183.15 0.00117525
183.16 0.00169976
183.17 0.00221389
183.18 0.00271715
183.19 0.00320693
183.2 0.00367831
183.21 0.00412406
183.22 0.00453492
183.23 0.00489996
183.24 0.00520392
183.25 0.00543254
183.26 0.00557685
183.27 0.00562638
183.28 0.0055728
183.29 0.00541065
183.3 0.00513794
183.31 0.00475658
183.32 0.00427263
183.33 0.00368971
183.34 0.00303093
183.35 0.00231584
183.36 0.00156598
183.37 0.000804922
183.38 5.73396e-05
183.39 -0.000652001
183.4 -0.00129932
183.41 -0.00185977
183.42 -0.00230937
183.43 -0.00263999
183.44 -0.00284266
183.45 -0.00291365
183.46 -0.00285472
183.47 -0.00267303
183.48 -0.00238094
183.49 -0.00199549
183.5 -0.00153433
183.51 -0.00102746
183.52 -0.000502839
183.53 1.29216e-05
183.54 0.000493982
183.55 0.000916483
183.56 0.00125966
183.57 0.00150686
183.58 0.00164468
183.59 0.00165935
183.6 0.00156069
183.61 0.0013557
183.62 0.00105704
183.63 0.000682511
183.64 0.000254305
183.65 -0.000201977
183.66 -0.000658468
183.67 -0.00108316
183.68 -0.00144464
183.69 -0.001718
183.7 -0.00188035
183.71 -0.00191322
183.72 -0.00180354
183.73 -0.00154436
183.74 -0.00113535
183.75 -0.00058296
183.76 0.000109949
183.77 0.000909397
183.78 0.00178895
183.79 0.00271795
183.8 0.00366256
183.81 0.00458714
183.82 0.00545573
183.83 0.00623353
183.84 0.0068826
183.85 0.00736944
183.86 0.00768003
183.87 0.00779987
183.88 0.00772186
183.89 0.00744669
183.9 0.00698305
183.91 0.00634728
183.92 0.00556293
183.93 0.00465342
183.94 0.00366497
183.95 0.00263898
183.96 0.00161666
183.97 0.000639334
183.98 -0.000253296
183.99 -0.00102485
184 -0.0016438
184.01 -0.00208045
184.02 -0.00230629
184.03 -0.00232687
184.04 -0.00214356
184.05 -0.00176664
184.06 -0.00121495
184.07 -0.000515189
184.08 0.000299093
184.09 0.00118888
184.1 0.00211042
184.11 0.00301271
184.12 0.00385008
184.13 0.00458018
184.14 0.00516487
184.15 0.00557202
184.16 0.00577699
184.17 0.00576386
184.18 0.00552477
184.19 0.00504709
184.2 0.00436674
184.21 0.00350947
184.22 0.00250963
184.23 0.00140885
184.24 0.000254333
184.25 -0.000903035
184.26 -0.00201086
184.27 -0.00301044
184.28 -0.00384734
184.29 -0.00448502
184.3 -0.00488957
184.31 -0.00503655
184.32 -0.0049123
184.33 -0.00451481
184.34 -0.00385415
184.35 -0.00295236
184.36 -0.00182877
184.37 -0.000548393
184.38 0.000833021
184.39 0.00225539
184.4 0.00365496
184.41 0.00496691
184.42 0.00612804
184.43 0.00707952
184.44 0.00776
184.45 0.00811341
184.46 0.00812878
184.47 0.00779139
184.48 0.00710094
184.49 0.00607191
184.5 0.00473336
184.51 0.00312818
184.52 0.00131176
184.53 -0.000654857
184.54 -0.00268224
184.55 -0.00468675
184.56 -0.00658652
184.57 -0.00830135
184.58 -0.00975591
184.59 -0.0108828
184.6 -0.0116252
184.61 -0.0119327
184.62 -0.0117466
184.63 -0.0110935
184.64 -0.00998304
184.65 -0.00844236
184.66 -0.00651498
184.67 -0.00425961
184.68 -0.0017481
184.69 0.000937116
184.7 0.00370524
184.71 0.00644915
184.72 0.00907138
184.73 0.0114811
184.74 0.0135947
184.75 0.015339
184.76 0.0166537
184.77 0.0174943
184.78 0.017833
184.79 0.0176131
184.8 0.0168958
184.81 0.0157124
184.82 0.014111
184.83 0.0121544
184.84 0.00991758
184.85 0.00748478
184.86 0.00494638
184.87 0.00239851
184.88 -5.50493e-05
184.89 -0.00232884
184.9 -0.00434621
184.91 -0.00604214
184.92 -0.00736563
184.93 -0.00828142
184.94 -0.00877118
184.95 -0.00883394
184.96 -0.00845605
184.97 -0.00770095
184.98 -0.0066249
184.99 -0.00528928
185 -0.00376427
185.01 -0.00212573
185.02 -0.000451908
185.03 0.00117995
185.04 0.00269254
185.05 0.00400564
185.06 0.00507553
185.07 0.00586246
185.08 0.0063411
185.09 0.00650134
185.1 0.00634852
185.11 0.00590292
185.12 0.00519861
185.13 0.00427191
185.14 0.00319267
185.15 0.00203134
185.16 0.000854953
185.17 -0.000269567
185.18 -0.00127857
185.19 -0.00211471
185.2 -0.0027297
185.21 -0.0030843
185.22 -0.00313169
185.23 -0.00288876
185.24 -0.00236445
185.25 -0.00158221
185.26 -0.000578942
185.27 0.00059671
185.28 0.00188656
185.29 0.00322558
185.3 0.00454057
185.31 0.00575356
185.32 0.00680056
185.33 0.00762313
185.34 0.00817252
185.35 0.00841215
185.36 0.00831956
185.37 0.0078877
185.38 0.00712551
185.39 0.00603486
185.4 0.00468566
185.41 0.0031365
185.42 0.00145428
185.43 -0.000286342
185.44 -0.00200623
185.45 -0.00362523
185.46 -0.0050658
185.47 -0.00624644
185.48 -0.00708984
185.49 -0.00756604
185.5 -0.00764419
185.51 -0.00731034
185.52 -0.00656832
185.53 -0.00543979
185.54 -0.00396354
185.55 -0.00219402
185.56 -0.000188885
185.57 0.00195309
185.58 0.00413969
185.59 0.00628098
185.6 0.00828809
185.61 0.010077
185.62 0.0115722
185.63 0.0127097
185.64 0.0134329
185.65 0.0136799
185.66 0.0134725
185.67 0.0128185
185.68 0.0117438
185.69 0.010291
185.7 0.00851774
185.71 0.00649385
185.72 0.00429833
185.73 0.00201609
185.74 -0.000254491
185.75 -0.00242658
185.76 -0.00442259
185.77 -0.00617442
185.78 -0.00762615
185.79 -0.00873615
185.8 -0.0094785
185.81 -0.00984338
185.82 -0.00980522
185.83 -0.0094251
185.84 -0.00874198
185.85 -0.00780583
185.86 -0.00667481
185.87 -0.00541223
185.88 -0.00408322
185.89 -0.00275153
185.9 -0.00148089
185.91 -0.000329997
185.92 0.000664968
185.93 0.00147608
185.94 0.00208812
185.95 0.00249876
185.96 0.00271816
185.97 0.00276782
185.98 0.00267886
185.99 0.00248541
186 0.00224179
186.01 0.00199482
186.02 0.00178824
186.03 0.00166149
186.04 0.00164721
186.05 0.00176926
186.06 0.00204114
186.07 0.00246867
186.08 0.00304681
186.09 0.00374221
186.1 0.00452258
186.11 0.00534788
186.12 0.00617259
186.13 0.00694836
186.14 0.00762681
186.15 0.00816242
186.16 0.00850148
186.17 0.00861637
186.18 0.00849403
186.19 0.00812781
186.2 0.00752389
186.21 0.0067014
186.22 0.00569169
186.23 0.00453704
186.24 0.00328846
186.25 0.0020072
186.26 0.000762244
186.27 -0.000385097
186.28 -0.00137716
186.29 -0.002163
186.3 -0.0027012
186.31 -0.00296221
186.32 -0.00293011
186.33 -0.00259018
186.34 -0.00196089
186.35 -0.00108768
186.36 -1.54767e-05
186.37 0.00119989
186.38 0.0024944
186.39 0.00379893
186.4 0.00504277
186.41 0.00615717
186.42 0.00705709
186.43 0.00770109
186.44 0.00805107
186.45 0.00808217
186.46 0.00778552
186.47 0.00716884
186.48 0.00625625
186.49 0.00508723
186.5 0.00371035
186.51 0.00219417
186.52 0.000623893
186.53 -0.000924071
186.54 -0.00237383
186.55 -0.00365385
186.56 -0.00470056
186.57 -0.00546163
186.58 -0.0058986
186.59 -0.0059635
186.6 -0.0056706
186.61 -0.00504389
186.62 -0.00411629
186.63 -0.00293576
186.64 -0.00156291
186.65 -6.79217e-05
186.66 0.00147289
186.67 0.00297898
186.68 0.00435932
186.69 0.00554811
186.7 0.00648615
186.71 0.00712732
186.72 0.00744082
186.73 0.00741271
186.74 0.00704652
186.75 0.00636304
186.76 0.00538629
186.77 0.00418046
186.78 0.00282067
186.79 0.0013789
186.8 -6.93793e-05
186.81 -0.0014491
186.82 -0.00268948
186.83 -0.00372765
186.84 -0.00451134
186.85 -0.00497385
186.86 -0.00512108
186.87 -0.00495146
186.88 -0.00448018
186.89 -0.00373823
186.9 -0.00277064
186.91 -0.00163397
186.92 -0.000393237
186.93 0.000879957
186.94 0.00210556
186.95 0.00321524
186.96 0.00414926
186.97 0.00485842
186.98 0.00530656
186.99 0.0054725
187 0.00535112
187.01 0.00495356
187.02 0.00428981
187.03 0.00342322
187.04 0.00241222
187.05 0.00131994
187.06 0.000214073
187.07 -0.000836823
187.08 -0.00176708
187.09 -0.00251754
187.1 -0.00303198
187.11 -0.00325964
187.12 -0.00319839
187.13 -0.00284595
187.14 -0.00221643
187.15 -0.00133955
187.16 -0.00025921
187.17 0.000968845
187.18 0.00227988
187.19 0.00359961
187.2 0.00484781
187.21 0.00595544
187.22 0.0068603
187.23 0.00751026
187.24 0.00786604
187.25 0.00790334
187.26 0.00761424
187.27 0.0070048
187.28 0.00608299
187.29 0.00491954
187.3 0.00357118
187.31 0.00210428
187.32 0.000591518
187.33 -0.000891851
187.34 -0.00227183
187.35 -0.00347944
187.36 -0.00444023
187.37 -0.00510219
187.38 -0.00544517
187.39 -0.00545439
187.4 -0.00513191
187.41 -0.00449641
187.42 -0.00358219
187.43 -0.00243733
187.44 -0.00112114
187.45 0.000301598
187.46 0.00174373
187.47 0.00313203
187.48 0.00439748
187.49 0.00547821
187.5 0.00632251
187.51 0.00689129
187.52 0.00715989
187.53 0.00710885
187.54 0.00673923
187.55 0.00609479
187.56 0.00521369
187.57 0.00414507
187.58 0.00294627
187.59 0.00167974
187.6 0.000409675
187.61 -0.000801335
187.62 -0.00188318
187.63 -0.00278843
187.64 -0.00348252
187.65 -0.00394062
187.66 -0.00415109
187.67 -0.00411569
187.68 -0.00384904
187.69 -0.00337736
187.7 -0.00273439
187.71 -0.00196148
187.72 -0.00111979
187.73 -0.000259002
187.74 0.000573107
187.75 0.00133344
187.76 0.00198593
187.77 0.00250351
187.78 0.00286941
187.79 0.00306917
187.8 0.00311364
187.81 0.00302674
187.82 0.00283532
187.83 0.00257302
187.84 0.00227793
187.85 0.00198998
187.86 0.00174827
187.87 0.00158871
187.88 0.00155303
187.89 0.0016527
187.9 0.00189735
187.91 0.00228592
187.92 0.0028065
187.93 0.00343687
187.94 0.00414567
187.95 0.00489412
187.96 0.00563602
187.97 0.00631854
187.98 0.00689657
187.99 0.00732843
188 0.00757903
188.01 0.0076223
188.02 0.00744304
188.03 0.00703829
188.04 0.00641794
188.05 0.00559185
188.06 0.00461294
188.07 0.00353096
188.08 0.00240086
188.09 0.00128242
188.1 0.000237071
188.11 -0.0006754
188.12 -0.00140021
188.13 -0.00188349
188.14 -0.00207599
188.15 -0.00197521
188.16 -0.00157758
188.17 -0.000895424
188.18 4.31458e-05
188.19 0.00119527
188.2 0.00250513
188.21 0.00390641
188.22 0.00532141
188.23 0.00666365
188.24 0.00785642
188.25 0.00882841
188.26 0.00951723
188.27 0.00987279
188.28 0.0098601
188.29 0.00946145
188.3 0.00867368
188.31 0.00749419
188.32 0.00599756
188.33 0.0042428
188.34 0.00230277
188.35 0.000260962
188.36 -0.00179234
188.37 -0.00376431
188.38 -0.00556401
188.39 -0.00708983
188.4 -0.00826178
188.41 -0.00903548
188.42 -0.00937271
188.43 -0.00925517
188.44 -0.00868557
188.45 -0.00768774
188.46 -0.00630569
188.47 -0.00460179
188.48 -0.00264018
188.49 -0.000540521
188.5 0.00159727
188.51 0.00367229
188.52 0.00558627
188.53 0.00724823
188.54 0.00857872
188.55 0.00951367
188.56 0.0099911
188.57 0.00997431
188.58 0.00949226
188.59 0.00856939
188.6 0.00725117
188.61 0.00560206
188.62 0.00370262
188.63 0.00164585
188.64 -0.000467043
188.65 -0.00251976
188.66 -0.00440193
188.67 -0.00601944
188.68 -0.00728851
188.69 -0.00814076
188.7 -0.00852629
188.71 -0.00841602
188.72 -0.007803
188.73 -0.00669419
188.74 -0.00510834
188.75 -0.00314411
188.76 -0.000880775
188.77 0.00158882
188.78 0.00416231
188.79 0.00673214
188.8 0.00919021
188.81 0.0114324
188.82 0.0133396
188.83 0.0148283
188.84 0.0158466
188.85 0.0163506
188.86 0.0163167
188.87 0.0157432
188.88 0.0146495
188.89 0.0130755
188.9 0.0110783
188.91 0.0087104
188.92 0.00609867
188.93 0.00334059
188.94 0.000537644
188.95 -0.00220875
188.96 -0.00480122
188.97 -0.00715014
188.98 -0.00917698
188.99 -0.0107982
189 -0.0119577
189.01 -0.0126492
189.02 -0.0128641
189.03 -0.012612
189.04 -0.0119195
189.05 -0.0108288
189.06 -0.00939542
189.07 -0.00768558
189.08 -0.00576321
189.09 -0.00372876
189.1 -0.00166441
189.11 0.000352523
189.12 0.00225012
189.13 0.0039644
189.14 0.00544144
189.15 0.00663901
189.16 0.00751865
189.17 0.00805127
189.18 0.00825813
189.19 0.00815209
189.2 0.00775742
189.21 0.00710821
189.22 0.00624656
189.23 0.0052204
189.24 0.00408138
189.25 0.00288211
189.26 0.00168235
189.27 0.000531901
189.28 -0.000526078
189.29 -0.001455
189.3 -0.00222596
189.31 -0.00281843
189.32 -0.00322059
189.33 -0.00342701
189.34 -0.00343082
189.35 -0.00326214
189.36 -0.00294123
189.37 -0.00249314
189.38 -0.00194629
189.39 -0.00133096
189.4 -0.000677755
189.41 -1.62105e-05
189.42 0.000624298
189.43 0.00121796
189.44 0.00174768
189.45 0.00220056
189.46 0.00256909
189.47 0.00285119
189.48 0.00304983
189.49 0.00317256
189.5 0.00323072
189.51 0.00323542
189.52 0.00320855
189.53 0.00316697
189.54 0.0031267
189.55 0.00310197
189.56 0.0031044
189.57 0.00314222
189.58 0.00321972
189.59 0.00333822
189.6 0.00349324
189.61 0.00367316
189.62 0.0038652
189.63 0.00405373
189.64 0.00422121
189.65 0.00434914
189.66 0.00441921
189.67 0.00441434
189.68 0.00431215
189.69 0.00410577
189.7 0.00379075
189.71 0.0033658
189.72 0.00283483
189.73 0.00220707
189.74 0.00149681
189.75 0.000722964
189.76 -9.19072e-05
189.77 -0.00091978
189.78 -0.00172999
189.79 -0.00249434
189.8 -0.00318563
189.81 -0.00377893
189.82 -0.00425273
189.83 -0.00459004
189.84 -0.00477914
189.85 -0.00480506
189.86 -0.00467301
189.87 -0.00439644
189.88 -0.00398918
189.89 -0.0034702
189.9 -0.00286265
189.91 -0.00219278
189.92 -0.00148862
189.93 -0.000778771
189.94 -9.5099e-05
189.95 0.000537771
189.96 0.00109907
189.97 0.00157271
189.98 0.001948
189.99 0.00221999
190 0.00238953
190.01 0.00246306
190.02 0.00244898
190.03 0.00236485
190.04 0.00223398
190.05 0.00207694
190.06 0.00191437
190.07 0.00176559
190.08 0.00164733
190.09 0.0015726
190.1 0.00154974
190.11 0.0015862
190.12 0.0016743
190.13 0.00180413
190.14 0.0019614
190.15 0.00212774
190.16 0.00228175
190.17 0.00240044
190.18 0.0024607
190.19 0.00243803
190.2 0.00230856
190.21 0.00206502
190.22 0.00170072
190.23 0.00121591
190.24 0.000618253
190.25 -7.70806e-05
190.26 -0.000847769
190.27 -0.00166513
190.28 -0.00249356
190.29 -0.00329083
190.3 -0.00401749
190.31 -0.00463518
190.32 -0.00510858
190.33 -0.00540744
190.34 -0.00550844
190.35 -0.00539684
190.36 -0.0050649
190.37 -0.00450538
190.38 -0.00375482
190.39 -0.00284219
190.4 -0.00180554
190.41 -0.00069044
190.42 0.000452105
190.43 0.00156804
190.44 0.00260293
190.45 0.00349518
190.46 0.00419455
190.47 0.00467002
190.48 0.00489525
190.49 0.0048561
190.5 0.00455167
190.51 0.00399475
190.52 0.00321153
190.53 0.00224061
190.54 0.001124
190.55 -6.2402e-05
190.56 -0.00125401
190.57 -0.00238498
190.58 -0.00339132
190.59 -0.00421423
190.6 -0.00480343
190.61 -0.00511994
190.62 -0.00512716
190.63 -0.0048099
190.64 -0.00419613
190.65 -0.00331299
190.66 -0.00220304
190.67 -0.000922536
190.68 0.000461169
190.69 0.00187283
190.7 0.00323302
190.71 0.00444626
190.72 0.00543858
190.73 0.00614781
190.74 0.00652213
190.75 0.00652569
190.76 0.00614099
190.77 0.00537034
190.78 0.00423643
190.79 0.00277642
190.8 0.0010464
190.81 -0.000850506
190.82 -0.0028226
190.83 -0.00477091
190.84 -0.00659392
190.85 -0.00819249
190.86 -0.00947488
190.87 -0.0103614
190.88 -0.0107583
190.89 -0.0106329
190.9 -0.00998609
190.91 -0.00882751
190.92 -0.00719141
190.93 -0.00513572
190.94 -0.00273975
190.95 -0.000101011
190.96 0.00266902
190.97 0.00543849
190.98 0.00807355
190.99 0.0104541
191 0.0124696
191.01 0.0140241
191.02 0.0150414
191.03 0.0154683
191.04 0.0152778
191.05 0.0144436
191.06 0.0129992
191.07 0.0110362
191.08 0.00863956
191.09 0.00591408
191.1 0.00297976
191.11 -3.3786e-05
191.12 -0.00299326
191.13 -0.00576787
191.14 -0.00820019
191.15 -0.010199
191.16 -0.0116844
191.17 -0.0125982
191.18 -0.0129088
191.19 -0.0126138
191.2 -0.0117391
191.21 -0.0103379
191.22 -0.00847831
191.23 -0.00626043
191.24 -0.00383075
191.25 -0.00131641
191.26 0.00115263
191.27 0.00344983
191.28 0.00545817
191.29 0.00707579
191.3 0.00822086
191.31 0.00879673
191.32 0.00879664
191.33 0.0082383
191.34 0.007154
191.35 0.00560256
191.36 0.00366648
191.37 0.00144791
191.38 -0.000936328
191.39 -0.00335892
191.4 -0.00567197
191.41 -0.0077502
191.42 -0.00948087
191.43 -0.0107676
191.44 -0.0115353
191.45 -0.0117331
191.46 -0.0113379
191.47 -0.0103546
191.48 -0.00879004
191.49 -0.0067221
191.5 -0.00426248
191.51 -0.00151932
191.52 0.00138532
191.53 0.00432102
191.54 0.00715511
191.55 0.00975867
191.56 0.0120125
191.57 0.0137624
191.58 0.0149631
191.59 0.0155611
191.6 0.0155291
191.61 0.0148678
191.62 0.013606
191.63 0.0117986
191.64 0.00952465
191.65 0.00687401
191.66 0.00397226
191.67 0.000966188
191.68 -0.00201418
191.69 -0.00484141
191.7 -0.00739623
191.71 -0.00957278
191.72 -0.0112831
191.73 -0.0124608
191.74 -0.0130182
191.75 -0.0129764
191.76 -0.0123618
191.77 -0.0112158
191.78 -0.0096029
191.79 -0.00760723
191.8 -0.00532869
191.81 -0.00287832
191.82 -0.000374761
191.83 0.00204852
191.84 0.00427751
191.85 0.00621159
191.86 0.00776519
191.87 0.00887137
191.88 0.00948447
191.89 0.00958187
191.9 0.00916469
191.91 0.0082301
191.92 0.00684707
191.93 0.00510178
191.94 0.00308
191.95 0.000878949
191.96 -0.0013971
191.97 -0.00364154
191.98 -0.00575017
191.99 -0.00762352
192 -0.00914272
192.01 -0.0102625
192.02 -0.0109345
192.03 -0.0111306
192.04 -0.0108445
192.05 -0.0100913
192.06 -0.00890666
192.07 -0.00734549
192.08 -0.00546887
192.09 -0.00337276
192.1 -0.00116648
192.11 0.00105106
192.12 0.0031814
192.13 0.00513094
192.14 0.006815
192.15 0.00816152
192.16 0.00911423
192.17 0.00959643
192.18 0.00962496
192.19 0.00921093
192.2 0.00838187
192.21 0.00718425
192.22 0.00568134
192.23 0.00395038
192.24 0.0020791
192.25 0.000163485
192.26 -0.00168722
192.27 -0.0033778
192.28 -0.00482268
192.29 -0.00594778
192.3 -0.00669398
192.31 -0.00701992
192.32 -0.00690405
192.33 -0.00634585
192.34 -0.00533953
192.35 -0.00395303
192.36 -0.00226113
192.37 -0.000344134
192.38 0.00170536
192.39 0.00378643
192.4 0.00579429
192.41 0.00762497
192.42 0.0091744
192.43 0.010323
192.44 0.0110237
192.45 0.0112253
192.46 0.0108977
192.47 0.0100341
192.48 0.00865136
192.49 0.00679018
192.5 0.00451336
192.51 0.00189119
192.52 -0.000958051
192.53 -0.00390712
192.54 -0.00683498
192.55 -0.00961903
192.56 -0.0121404
192.57 -0.0142892
192.58 -0.0159692
192.59 -0.0171022
192.6 -0.017572
192.61 -0.0174047
192.62 -0.016601
192.63 -0.0151875
192.64 -0.0132163
192.65 -0.0107629
192.66 -0.00792316
192.67 -0.00480928
192.68 -0.00154456
192.69 0.00172498
192.7 0.00486174
192.71 0.00774173
192.72 0.0102525
192.73 0.0122977
192.74 0.0138012
192.75 0.0147101
192.76 0.0149968
192.77 0.0146127
192.78 0.0136275
192.79 0.0121054
192.8 0.0101215
192.81 0.00776822
192.82 0.00515089
192.83 0.00238264
192.84 -0.000420669
192.85 -0.00314131
192.86 -0.00565445
192.87 -0.00787688
192.88 -0.00973557
192.89 -0.0111771
192.9 -0.0121692
192.91 -0.0127017
192.92 -0.0127858
192.93 -0.0124525
192.94 -0.0117311
192.95 -0.0107043
192.96 -0.00945796
192.97 -0.008071
192.98 -0.00662257
192.99 -0.00518768
193 -0.00383321
193.01 -0.00261464
193.02 -0.00157502
193.03 -0.000756985
193.04 -0.00015
193.05 0.000256444
193.06 0.000487194
193.07 0.000579064
193.08 0.000577754
193.09 0.000534263
193.1 0.000501005
193.11 0.000532841
193.12 0.000677659
193.13 0.000963266
193.14 0.00140751
193.15 0.00201342
193.16 0.00276849
193.17 0.00364484
193.18 0.00460055
193.19 0.00558174
193.2 0.0065165
193.21 0.0073338
193.22 0.00796576
193.23 0.00834888
193.24 0.00842861
193.25 0.00816335
193.26 0.00752781
193.27 0.0065155
193.28 0.00513
193.29 0.00340235
193.3 0.00141446
193.31 -0.000757018
193.32 -0.00302137
193.33 -0.00527806
193.34 -0.0074217
193.35 -0.00934741
193.36 -0.0109565
193.37 -0.0121279
193.38 -0.0128064
193.39 -0.0129579
193.4 -0.0125639
193.41 -0.0116326
193.42 -0.0101995
193.43 -0.00832672
193.44 -0.0061001
193.45 -0.0036241
193.46 -0.00102652
193.47 0.00154206
193.48 0.00394786
193.49 0.00606263
193.5 0.00777034
193.51 0.00897341
193.52 0.00959809
193.53 0.00959877
193.54 0.0089265
193.55 0.00761667
193.56 0.00575189
193.57 0.00341942
193.58 0.000732094
193.59 -0.00217698
193.6 -0.00516084
193.61 -0.00806596
193.62 -0.0107397
193.63 -0.0129917
193.64 -0.014724
193.65 -0.01584
193.66 -0.016273
193.67 -0.0159903
193.68 -0.0149957
193.69 -0.0133294
193.7 -0.0110667
193.71 -0.00830089
193.72 -0.00517981
193.73 -0.00188706
193.74 0.0014091
193.75 0.00453826
193.76 0.00733648
193.77 0.00965464
193.78 0.0113662
193.79 0.0123737
193.8 0.0125515
193.81 0.011928
193.82 0.0105392
193.83 0.00844833
193.84 0.00575463
193.85 0.00258855
193.86 -0.000894481
193.87 -0.00452166
193.88 -0.00810573
193.89 -0.011436
193.9 -0.0143489
193.91 -0.0166963
193.92 -0.0183579
193.93 -0.0192473
193.94 -0.0193161
193.95 -0.0185565
193.96 -0.0170022
193.97 -0.014687
193.98 -0.0117606
193.99 -0.00839022
194 -0.00474247
194.01 -0.000997012
194.02 0.00266267
194.03 0.00605836
194.04 0.00902612
194.05 0.0114183
194.06 0.0130626
194.07 0.0139418
194.08 0.0140271
194.09 0.0133302
194.1 0.0119023
194.11 0.00983128
194.12 0.00723658
194.13 0.00426319
194.14 0.00107202
194.15 -0.00214239
194.16 -0.00520051
194.17 -0.00794285
194.18 -0.0102291
194.19 -0.0119451
194.2 -0.0130086
194.21 -0.0133733
194.22 -0.0130307
194.23 -0.0119567
194.24 -0.0102828
194.25 -0.00811837
194.26 -0.00559294
194.27 -0.00285407
194.28 -5.92082e-05
194.29 0.00263276
194.3 0.00506996
194.31 0.0070988
194.32 0.00857985
194.33 0.00945969
194.34 0.009693
194.35 0.00927003
194.36 0.0082168
194.37 0.00659337
194.38 0.00449039
194.39 0.00202405
194.4 -0.000675961
194.41 -0.0034356
194.42 -0.00609993
194.43 -0.00852526
194.44 -0.0105819
194.45 -0.0121611
194.46 -0.0131803
194.47 -0.0135875
194.48 -0.0133534
194.49 -0.0124608
194.5 -0.0110134
194.51 -0.00909444
194.52 -0.00681103
194.53 -0.00428791
194.54 -0.00166058
194.55 0.000932163
194.56 0.00335574
194.57 0.00546434
194.58 0.00714918
194.59 0.00834682
194.6 0.00901071
194.61 0.00912491
194.62 0.00870451
194.63 0.00779426
194.64 0.00646572
194.65 0.00481253
194.66 0.00293755
194.67 0.000991758
194.68 -0.00090114
194.69 -0.00262323
194.7 -0.00406909
194.71 -0.00515173
194.72 -0.00580752
194.73 -0.00599973
194.74 -0.00570222
194.75 -0.00493732
194.76 -0.00378623
194.77 -0.00232904
194.78 -0.000665361
194.79 0.00109142
194.8 0.00282068
194.81 0.00440149
194.82 0.00571961
194.83 0.00663825
194.84 0.0070963
194.85 0.00704827
194.86 0.00647195
194.87 0.00537527
194.88 0.00379625
194.89 0.00180134
194.9 -0.000517813
194.91 -0.00305095
194.92 -0.00565956
194.93 -0.00819443
194.94 -0.0105209
194.95 -0.0125125
194.96 -0.0140579
194.97 -0.0150669
194.98 -0.0154753
194.99 -0.0152488
195 -0.0143455
195.01 -0.0128257
195.02 -0.0107765
195.03 -0.00829305
195.04 -0.00549326
195.05 -0.00251168
195.06 0.00050716
195.07 0.00341596
195.08 0.00606823
195.09 0.00829311
195.1 0.010007
195.11 0.0111285
195.12 0.0116055
195.13 0.011418
195.14 0.0105788
195.15 0.00913295
195.16 0.00715522
195.17 0.00473146
195.18 0.00200267
195.19 -0.000873526
195.2 -0.00375248
195.21 -0.00649077
195.22 -0.00895325
195.23 -0.0110197
195.24 -0.0125904
195.25 -0.0135913
195.26 -0.0139211
195.27 -0.01362
195.28 -0.0127157
195.29 -0.0112612
195.3 -0.00933619
195.31 -0.00704262
195.32 -0.00449922
195.33 -0.00183572
195.34 0.000808469
195.35 0.00328255
195.36 0.00546795
195.37 0.00725983
195.38 0.00857385
195.39 0.00934977
195.4 0.0095539
195.41 0.00918016
195.42 0.00824982
195.43 0.00677792
195.44 0.00487103
195.45 0.0026329
195.46 0.000169675
195.47 -0.00240458
195.48 -0.0049734
195.49 -0.00742331
195.5 -0.00964896
195.51 -0.0115504
195.52 -0.0130225
195.53 -0.0140384
195.54 -0.0145678
195.55 -0.014602
195.56 -0.0141537
195.57 -0.0132555
195.58 -0.0119572
195.59 -0.0103229
195.6 -0.00841705
195.61 -0.00633659
195.62 -0.00417487
195.63 -0.00201372
195.64 7.06589e-05
195.65 0.00201067
195.66 0.00374964
195.67 0.00524345
195.68 0.00646069
195.69 0.00735778
195.7 0.00795956
195.71 0.00827662
195.72 0.00832941
195.73 0.00814615
195.74 0.00776055
195.75 0.00720955
195.76 0.00653111
195.77 0.00575995
195.78 0.00493357
195.79 0.00408566
195.8 0.00324039
195.81 0.00241659
195.82 0.00162784
195.83 0.000882918
195.84 0.000186516
195.85 -0.00045979
195.86 -0.00105259
195.87 -0.00159692
195.88 -0.00209475
195.89 -0.00254637
195.9 -0.00295046
195.91 -0.00330389
195.92 -0.00360165
195.93 -0.00383721
195.94 -0.00400093
195.95 -0.00408095
195.96 -0.00407522
195.97 -0.00397868
195.98 -0.00378904
195.99 -0.00350755
196 -0.00313956
196.01 -0.00269495
196.02 -0.0021881
196.03 -0.00163636
196.04 -0.00106666
196.05 -0.000505955
196.06 1.85809e-05
196.07 0.0004797
196.08 0.000851523
196.09 0.00111098
196.1 0.00123915
196.11 0.00122083
196.12 0.00103771
196.13 0.000703524
196.14 0.000226996
196.15 -0.000376093
196.16 -0.00108349
196.17 -0.00186741
196.18 -0.0026958
196.19 -0.0035338
196.2 -0.00434227
196.21 -0.0050819
196.22 -0.00572196
196.23 -0.00623473
196.24 -0.00659824
196.25 -0.00679727
196.26 -0.00682408
196.27 -0.00667865
196.28 -0.00636869
196.29 -0.00589754
196.3 -0.00530179
196.31 -0.0046095
196.32 -0.0038514
196.33 -0.00306
196.34 -0.00226798
196.35 -0.00150661
196.36 -0.000804334
196.37 -0.000189103
196.38 0.000315593
196.39 0.000702751
196.4 0.000966199
196.41 0.00110564
196.42 0.00112621
196.43 0.00103774
196.44 0.000853799
196.45 0.000590647
196.46 0.000262838
196.47 -0.000106554
196.48 -0.000499358
196.49 -0.00090051
196.5 -0.00129749
196.51 -0.00168074
196.52 -0.00204376
196.53 -0.00238301
196.54 -0.00269709
196.55 -0.00298596
196.56 -0.00325398
196.57 -0.00350386
196.58 -0.00373772
196.59 -0.00395637
196.6 -0.00415873
196.61 -0.00434142
196.62 -0.00449861
196.63 -0.0046196
196.64 -0.00469369
196.65 -0.00471061
196.66 -0.00465867
196.67 -0.00452708
196.68 -0.00430707
196.69 -0.00399297
196.7 -0.00358326
196.71 -0.00308111
196.72 -0.00248973
196.73 -0.00183366
196.74 -0.00113477
196.75 -0.000419982
196.76 0.00027976
196.77 0.000930778
196.78 0.00149829
196.79 0.00194824
196.8 0.00224164
196.81 0.00234773
196.82 0.00225599
196.83 0.00195657
196.84 0.00144928
196.85 0.00074435
196.86 -0.0001374
196.87 -0.00116489
196.88 -0.00229774
196.89 -0.00348789
196.9 -0.00467172
196.91 -0.00579078
196.92 -0.00678729
196.93 -0.00760641
196.94 -0.0081991
196.95 -0.00852482
196.96 -0.00855393
196.97 -0.00826091
196.98 -0.00763196
196.99 -0.00670389
197 -0.00550696
197.01 -0.00408498
197.02 -0.00249355
197.03 -0.000797727
197.04 0.00093093
197.05 0.00261767
197.06 0.00417549
197.07 0.00553214
197.08 0.00663066
197.09 0.00742214
197.1 0.00787175
197.11 0.00796056
197.12 0.00768663
197.13 0.00706533
197.14 0.00612549
197.15 0.00490149
197.16 0.00348159
197.17 0.00193745
197.18 0.000346125
197.19 -0.00121384
197.2 -0.00266643
197.21 -0.00394209
197.22 -0.00498133
197.23 -0.00572168
197.24 -0.00613333
197.25 -0.00621962
197.26 -0.00598952
197.27 -0.00546955
197.28 -0.00470234
197.29 -0.00374439
197.3 -0.00266306
197.31 -0.00153286
197.32 -0.000441082
197.33 0.000532816
197.34 0.00131994
197.35 0.00186165
197.36 0.00211309
197.37 0.00204578
197.38 0.00164949
197.39 0.000933035
197.4 -8.45318e-05
197.41 -0.00135592
197.42 -0.00279983
197.43 -0.00434024
197.44 -0.00589338
197.45 -0.00737209
197.46 -0.00869035
197.47 -0.00976797
197.48 -0.0105349
197.49 -0.0109045
197.5 -0.0108582
197.51 -0.0103892
197.52 -0.0095051
197.53 -0.008235
197.54 -0.00662827
197.55 -0.00475265
197.56 -0.00269118
197.57 -0.000538697
197.58 0.00159152
197.59 0.00359064
197.6 0.00535986
197.61 0.0068097
197.62 0.00786436
197.63 0.00846569
197.64 0.00857614
197.65 0.0081809
197.66 0.00726131
197.67 0.00586916
197.68 0.0040815
197.69 0.00197723
197.7 -0.000349149
197.71 -0.00279189
197.72 -0.00523877
197.73 -0.0075763
197.74 -0.00969339
197.75 -0.0114537
197.76 -0.0127955
197.77 -0.0136544
197.78 -0.0139876
197.79 -0.0137756
197.8 -0.013023
197.81 -0.0117587
197.82 -0.0100339
197.83 -0.0079071
197.84 -0.00547766
197.85 -0.00286832
197.86 -0.000189628
197.87 0.00244581
197.88 0.00492826
197.89 0.00715565
197.9 0.00903787
197.91 0.0105005
197.92 0.0114454
197.93 0.0118725
197.94 0.0117798
197.95 0.0111817
197.96 0.0101137
197.97 0.00863012
197.98 0.00680154
197.99 0.00471135
198 0.00245004
198.01 0.000123361
198.02 -0.00216124
198.03 -0.00431121
198.04 -0.0062424
198.05 -0.00788227
198.06 -0.0091726
198.07 -0.0100714
198.08 -0.0105541
198.09 -0.0105861
198.1 -0.0101996
198.11 -0.00943661
198.12 -0.0083424
198.13 -0.00697384
198.14 -0.00539681
198.15 -0.00368314
198.16 -0.00190747
198.17 -0.000145301
198.18 0.00151983
198.19 0.00302663
198.2 0.00432067
198.21 0.00535811
198.22 0.00610689
198.23 0.00654745
198.24 0.00667285
198.25 0.00648848
198.26 0.00599741
198.27 0.00523439
198.28 0.00424942
198.29 0.00308668
198.3 0.00179484
198.31 0.000425025
198.32 -0.000971173
198.33 -0.00234361
198.34 -0.00364529
198.35 -0.00482023
198.36 -0.0058404
198.37 -0.00667854
198.38 -0.00731482
198.39 -0.00773741
198.4 -0.00794246
198.41 -0.00793385
198.42 -0.00772259
198.43 -0.0073202
198.44 -0.00674948
198.45 -0.00604905
198.46 -0.00524987
198.47 -0.00438447
198.48 -0.00348576
198.49 -0.00258578
198.5 -0.00171461
198.51 -0.00089931
198.52 -0.000170494
198.53 0.000456883
198.54 0.000972235
198.55 0.00136902
198.56 0.00164627
198.57 0.00180844
198.58 0.001865
198.59 0.00182988
198.6 0.00171961
198.61 0.0015542
198.62 0.00136123
198.63 0.00116337
198.64 0.000982425
198.65 0.000838241
198.66 0.000747669
198.67 0.000723647
198.68 0.000774456
198.69 0.000907765
198.7 0.00111804
198.71 0.00139349
198.72 0.00171987
198.73 0.00207844
198.74 0.00244684
198.75 0.00280014
198.76 0.00311214
198.77 0.00335618
198.78 0.00349779
198.79 0.00352258
198.8 0.00341437
198.81 0.00316265
198.82 0.0027635
198.83 0.00222011
198.84 0.00154304
198.85 0.000750056
198.86 -0.000136994
198.87 -0.00108349
198.88 -0.00204917
198.89 -0.00299538
198.9 -0.00388246
198.91 -0.00467158
198.92 -0.00532663
198.93 -0.00581598
198.94 -0.00611416
198.95 -0.00618476
198.96 -0.00603468
198.97 -0.00566819
198.98 -0.00509693
198.99 -0.00434159
199 -0.00343114
199.01 -0.0024016
199.02 -0.0012944
199.03 -0.000155072
199.04 0.000964121
199.05 0.00201628
199.06 0.00295966
199.07 0.00375795
199.08 0.00438197
199.09 0.00481104
199.1 0.00503387
199.11 0.00504902
199.12 0.00485234
199.13 0.00447308
199.14 0.00394365
199.15 0.00329752
199.16 0.00257243
199.17 0.0018082
199.18 0.00104454
199.19 0.000318878
199.2 -0.00033437
199.21 -0.000879786
199.22 -0.00130621
199.23 -0.00160508
199.24 -0.00177687
199.25 -0.00183084
199.26 -0.00178429
199.27 -0.00166128
199.28 -0.00149094
199.29 -0.00130651
199.3 -0.0011451
199.31 -0.00103792
199.32 -0.0010114
199.33 -0.00108563
199.34 -0.00127277
199.35 -0.00157582
199.36 -0.00198807
199.37 -0.00249296
199.38 -0.00306782
199.39 -0.00366895
199.4 -0.00425508
199.41 -0.00478165
199.42 -0.00520329
199.43 -0.00547661
199.44 -0.00556304
199.45 -0.00543142
199.46 -0.00505101
199.47 -0.00440794
199.48 -0.00352269
199.49 -0.00241575
199.5 -0.0011211
199.51 0.000314812
199.52 0.00183489
199.53 0.00337377
199.54 0.00486076
199.55 0.00620806
199.56 0.0073462
199.57 0.00821393
199.58 0.00875757
199.59 0.00893637
199.6 0.00872503
199.61 0.00811558
199.62 0.00711834
199.63 0.00575529
199.64 0.00406427
199.65 0.00213689
199.66 5.18778e-05
199.67 -0.00210279
199.68 -0.00423379
199.69 -0.00624673
199.7 -0.00805061
199.71 -0.00956208
199.72 -0.0106836
199.73 -0.0113656
199.74 -0.0115869
199.75 -0.0113348
199.76 -0.0106178
199.77 -0.00946561
199.78 -0.00792775
199.79 -0.00607146
199.8 -0.00397778
199.81 -0.00173768
199.82 0.000529054
199.83 0.00272157
199.84 0.00474301
199.85 0.00650504
199.86 0.00793191
199.87 0.00896388
199.88 0.0095599
199.89 0.00967846
199.9 0.00932206
199.91 0.00853947
199.92 0.00737646
199.93 0.00589559
199.94 0.00417298
199.95 0.00229457
199.96 0.000351834
199.97 -0.00156257
199.98 -0.00334212
199.99 -0.00490854
200 -0.00619552
