0 0
0.01 -0.000526343
0.02 -0.00104868
0.03 -0.00156288
0.04 -0.00206402
0.05 -0.00254613
0.06 -0.00300195
0.07 -0.00342288
0.08 -0.00379898
0.09 -0.00411643
0.1 -0.00436063
0.11 -0.00452224
0.12 -0.00458896
0.13 -0.00454932
0.14 -0.00439333
0.15 -0.0041132
0.16 -0.00370401
0.17 -0.00316434
0.18 -0.00248729
0.19 -0.00168946
0.2 -0.000785816
0.21 0.000205818
0.22 0.00126295
0.23 0.00235877
0.24 0.00346266
0.25 0.00454097
0.26 0.0055555
0.27 0.0064607
0.28 0.00722471
0.29 0.00781269
0.3 0.0081927
0.31 0.00833699
0.32 0.00822316
0.33 0.00783516
0.34 0.00716417
0.35 0.0061918
0.36 0.00493675
0.37 0.00342592
0.38 0.00168581
0.39 -0.000249065
0.4 -0.00233679
0.41 -0.00452895
0.42 -0.00677165
0.43 -0.00900618
0.44 -0.01116
0.45 -0.0131721
0.46 -0.0149805
0.47 -0.0165251
0.48 -0.017749
0.49 -0.0185998
0.5 -0.0190308
0.51 -0.0190017
0.52 -0.0184549
0.53 -0.0173638
0.54 -0.0157367
0.55 -0.0135673
0.56 -0.0108578
0.57 -0.00761848
0.58 -0.00386774
0.59 0.000368294
0.6 0.00505614
0.61 0.010187
0.62 0.0156756
0.63 0.0214639
0.64 0.0274904
0.65 0.0336877
0.66 0.0399821
0.67 0.0462941
0.68 0.0525377
0.69 0.0586128
0.7 0.0644015
0.71 0.0698093
0.72 0.0747259
0.73 0.0790359
0.74 0.0826206
0.75 0.0853582
0.76 0.0871265
0.77 0.0878043
0.78 0.0871791
0.79 0.0851886
0.8 0.0817618
0.81 0.0768136
0.82 0.0702766
0.83 0.0621045
0.84 0.0522757
0.85 0.0407975
0.86 0.0276829
0.87 0.0129222
0.88 -0.00324121
0.89 -0.0206511
0.9 -0.039113
0.91 -0.058395
0.92 -0.0782299
0.93 -0.0983179
0.94 -0.118331
0.95 -0.137875
0.96 -0.156544
0.97 -0.173981
0.98 -0.189811
0.99 -0.203672
1 -0.215222
1.01 -0.224149
1.02 -0.230179
1.03 -0.233086
1.04 -0.23239
1.05 -0.228297
1.06 -0.220795
1.07 -0.209943
1.08 -0.19588
1.09 -0.178821
1.1 -0.159059
1.11 -0.136957
1.12 -0.112889
1.13 -0.0873889
1.14 -0.0611022
1.15 -0.0346054
1.16 -0.00849442
1.17 0.01663
1.18 0.0401777
1.19 0.0615838
1.2 0.0803243
1.21 0.0956466
1.22 0.10733
1.23 0.11512
1.24 0.11881
1.25 0.11829
1.26 0.113554
1.27 0.104701
1.28 0.0919349
1.29 0.0754782
1.3 0.0556363
1.31 0.033153
1.32 0.00859144
1.33 -0.0174331
1.34 -0.0442691
1.35 -0.0712467
1.36 -0.097696
1.37 -0.122965
1.38 -0.146285
1.39 -0.167103
1.4 -0.185002
1.41 -0.199594
1.42 -0.210588
1.43 -0.217799
1.44 -0.22115
1.45 -0.220678
1.46 -0.216497
1.47 -0.208634
1.48 -0.19777
1.49 -0.184361
1.5 -0.168931
1.51 -0.152058
1.52 -0.134358
1.53 -0.116464
1.54 -0.099009
1.55 -0.0826892
1.56 -0.068145
1.57 -0.055833
1.58 -0.046189
1.59 -0.0395644
1.6 -0.036217
1.61 -0.0363043
1.62 -0.0398801
1.63 -0.0468946
1.64 -0.0574648
1.65 -0.0710393
1.66 -0.0872459
1.67 -0.105661
1.68 -0.125801
1.69 -0.14714
1.7 -0.169122
1.71 -0.19118
1.72 -0.212716
1.73 -0.233094
1.74 -0.251847
1.75 -0.268524
1.76 -0.282728
1.77 -0.294129
1.78 -0.302468
1.79 -0.307558
1.8 -0.309282
1.81 -0.307347
1.82 -0.301952
1.83 -0.293257
1.84 -0.281387
1.85 -0.266503
1.86 -0.248789
1.87 -0.228438
1.88 -0.205644
1.89 -0.180552
1.9 -0.153218
1.91 -0.123945
1.92 -0.0928291
1.93 -0.0599355
1.94 -0.0252931
1.95 0.0111006
1.96 0.0492752
1.97 0.0892796
1.98 0.131286
1.99 0.175322
2 0.221361
2.01 0.269421
2.02 0.319478
2.03 0.371461
2.04 0.425235
2.05 0.480597
2.06 0.537269
2.07 0.594933
2.08 0.653014
2.09 0.710972
2.1 0.768194
2.11 0.824004
2.12 0.877676
2.13 0.928444
2.14 0.975524
2.15 1.01791
2.16 1.05468
2.17 1.08538
2.18 1.10933
2.19 1.12599
2.2 1.1349
2.21 1.13571
2.22 1.12822
2.23 1.11236
2.24 1.08757
2.25 1.05468
2.26 1.01425
2.27 0.966819
2.28 0.913094
2.29 0.853886
2.3 0.790105
2.31 0.722737
2.32 0.652789
2.33 0.581391
2.34 0.509779
2.35 0.438996
2.36 0.370032
2.37 0.303803
2.38 0.241124
2.39 0.1827
2.4 0.129105
2.41 0.0811391
2.42 0.0389111
2.43 0.00237574
2.44 -0.0285008
2.45 -0.053888
2.46 -0.0740789
2.47 -0.0894759
2.48 -0.100573
2.49 -0.107904
2.5 -0.111922
2.51 -0.11358
2.52 -0.113529
2.53 -0.112396
2.54 -0.110772
2.55 -0.10919
2.56 -0.108113
2.57 -0.107924
2.58 -0.108985
2.59 -0.111504
2.6 -0.115512
2.61 -0.121009
2.62 -0.127913
2.63 -0.136074
2.64 -0.145286
2.65 -0.155298
2.66 -0.165835
2.67 -0.176608
2.68 -0.187297
2.69 -0.197649
2.7 -0.207451
2.71 -0.216536
2.72 -0.224796
2.73 -0.232182
2.74 -0.23871
2.75 -0.244433
2.76 -0.249491
2.77 -0.254122
2.78 -0.258556
2.79 -0.263044
2.8 -0.267844
2.81 -0.273212
2.82 -0.279376
2.83 -0.286531
2.84 -0.294909
2.85 -0.304527
2.86 -0.315354
2.87 -0.327299
2.88 -0.340195
2.89 -0.353795
2.9 -0.367779
2.91 -0.381762
2.92 -0.395295
2.93 -0.407802
2.94 -0.418836
2.95 -0.427919
2.96 -0.434605
2.97 -0.438497
2.98 -0.439274
2.99 -0.436701
3 -0.430654
3.01 -0.420931
3.02 -0.407762
3.03 -0.391557
3.04 -0.372733
3.05 -0.351824
3.06 -0.329475
3.07 -0.30642
3.08 -0.283463
3.09 -0.261451
3.1 -0.241477
3.11 -0.224263
3.12 -0.210563
3.13 -0.201033
3.14 -0.196198
3.15 -0.196419
3.16 -0.201872
3.17 -0.212523
3.18 -0.228303
3.19 -0.248673
3.2 -0.272599
3.21 -0.299078
3.22 -0.326898
3.23 -0.354666
3.24 -0.380836
3.25 -0.403747
3.26 -0.42167
3.27 -0.432156
3.28 -0.433807
3.29 -0.425102
3.3 -0.404587
3.31 -0.371009
3.32 -0.323369
3.33 -0.260962
3.34 -0.183415
3.35 -0.0903153
3.36 0.0184841
3.37 0.141111
3.38 0.276331
3.39 0.422535
3.4 0.577768
3.41 0.739765
3.42 0.905991
3.43 1.0737
3.44 1.23969
3.45 1.4007
3.46 1.55378
3.47 1.69602
3.48 1.82463
3.49 1.93705
3.5 2.03101
3.51 2.10455
3.52 2.15587
3.53 2.18212
3.54 2.18458
3.55 2.1632
3.56 2.11839
3.57 2.05105
3.58 1.96254
3.59 1.85462
3.6 1.72946
3.61 1.58894
3.62 1.43629
3.63 1.27511
3.64 1.10851
3.65 0.939609
3.66 0.77148
3.67 0.607093
3.68 0.449228
3.69 0.300421
3.7 0.164098
3.71 0.0412662
3.72 -0.0667155
3.73 -0.158853
3.74 -0.234573
3.75 -0.293726
3.76 -0.33657
3.77 -0.363749
3.78 -0.375791
3.79 -0.37387
3.8 -0.36047
3.81 -0.337401
3.82 -0.306607
3.83 -0.270103
3.84 -0.229913
3.85 -0.188014
3.86 -0.14628
3.87 -0.106688
3.88 -0.0707754
3.89 -0.039735
3.9 -0.014536
3.91 0.00413108
3.92 0.015861
3.93 0.0205302
3.94 0.0182858
3.95 0.00941056
3.96 -0.00571161
3.97 -0.0257471
3.98 -0.0497033
3.99 -0.0764873
4 -0.104949
4.01 -0.133925
4.02 -0.162277
4.03 -0.188934
4.04 -0.212718
4.05 -0.232777
4.06 -0.248566
4.07 -0.259615
4.08 -0.265643
4.09 -0.266553
4.1 -0.262428
4.11 -0.253526
4.12 -0.240241
4.13 -0.222848
4.14 -0.202403
4.15 -0.179648
4.16 -0.155361
4.17 -0.130328
4.18 -0.105317
4.19 -0.0810443
4.2 -0.058153
4.21 -0.0372947
4.22 -0.0189617
4.23 -0.00333228
4.24 0.00944491
4.25 0.0193527
4.26 0.0265001
4.27 0.0311121
4.28 0.0335152
4.29 0.0341197
4.3 0.0333315
4.31 0.0318068
4.32 0.0300875
4.33 0.0286857
4.34 0.0280758
4.35 0.0286742
4.36 0.0308207
4.37 0.0347648
4.38 0.0407099
4.39 0.048765
4.4 0.058705
4.41 0.0703309
4.42 0.0833479
4.43 0.0973773
4.44 0.111973
4.45 0.12664
4.46 0.140854
4.47 0.153985
4.48 0.16551
4.49 0.174995
4.5 0.182044
4.51 0.186341
4.52 0.187669
4.53 0.185918
4.54 0.181095
4.55 0.17329
4.56 0.162593
4.57 0.149622
4.58 0.134854
4.59 0.118846
4.6 0.102224
4.61 0.0856561
4.62 0.0698338
4.63 0.0554479
4.64 0.0433074
4.65 0.0340807
4.66 0.028206
4.67 0.0261226
4.68 0.0281624
4.69 0.0345379
4.7 0.045335
4.71 0.060509
4.72 0.0798855
4.73 0.103483
4.74 0.130493
4.75 0.160363
4.76 0.192473
4.77 0.226141
4.78 0.260643
4.79 0.295238
4.8 0.329187
4.81 0.361706
4.82 0.392011
4.83 0.419609
4.84 0.444004
4.85 0.464802
4.86 0.481713
4.87 0.494563
4.88 0.503287
4.89 0.507931
4.9 0.508366
4.91 0.505095
4.92 0.49853
4.93 0.489072
4.94 0.477163
4.95 0.463267
4.96 0.447858
4.97 0.431393
4.98 0.414298
4.99 0.396977
5 0.379783
5.01 0.362954
5.02 0.34665
5.03 0.330952
5.04 0.315863
5.05 0.301309
5.06 0.287145
5.07 0.273167
5.08 0.259086
5.09 0.244612
5.1 0.229444
5.11 0.213288
5.12 0.195866
5.13 0.176936
5.14 0.156304
5.15 0.133826
5.16 0.109279
5.17 0.0828603
5.18 0.0546808
5.19 0.0249325
5.2 -0.00611645
5.21 -0.0381279
5.22 -0.0707034
5.23 -0.103396
5.24 -0.135685
5.25 -0.167001
5.26 -0.196865
5.27 -0.224796
5.28 -0.250346
5.29 -0.27312
5.3 -0.292785
5.31 -0.309083
5.32 -0.321839
5.33 -0.330666
5.34 -0.335854
5.35 -0.337561
5.36 -0.335995
5.37 -0.331442
5.38 -0.324258
5.39 -0.314855
5.4 -0.303685
5.41 -0.291205
5.42 -0.277931
5.43 -0.264419
5.44 -0.251117
5.45 -0.238431
5.46 -0.226713
5.47 -0.216245
5.48 -0.207238
5.49 -0.199821
5.5 -0.194152
5.51 -0.190112
5.52 -0.187532
5.53 -0.186217
5.54 -0.185915
5.55 -0.18633
5.56 -0.187134
5.57 -0.187985
5.58 -0.188533
5.59 -0.188379
5.6 -0.187267
5.61 -0.184961
5.62 -0.181286
5.63 -0.176134
5.64 -0.169474
5.65 -0.161354
5.66 -0.151899
5.67 -0.141268
5.68 -0.129787
5.69 -0.117851
5.7 -0.105851
5.71 -0.0942141
5.72 -0.0833829
5.73 -0.073801
5.74 -0.0658964
5.75 -0.0600644
5.76 -0.0569025
5.77 -0.0564891
5.78 -0.0590108
5.79 -0.0645737
5.8 -0.0731929
5.81 -0.0847886
5.82 -0.099188
5.83 -0.116128
5.84 -0.135327
5.85 -0.156343
5.86 -0.178563
5.87 -0.201452
5.88 -0.224454
5.89 -0.247005
5.9 -0.26855
5.91 -0.288565
5.92 -0.306572
5.93 -0.321937
5.94 -0.33444
5.95 -0.343887
5.96 -0.350132
5.97 -0.353128
5.98 -0.352928
5.99 -0.349675
6 -0.343605
6.01 -0.334985
6.02 -0.324135
6.03 -0.311677
6.04 -0.298088
6.05 -0.283858
6.06 -0.269476
6.07 -0.255412
6.08 -0.242095
6.09 -0.229908
6.1 -0.219269
6.11 -0.210393
6.12 -0.203366
6.13 -0.198236
6.14 -0.19496
6.15 -0.193409
6.16 -0.193374
6.17 -0.194575
6.18 -0.196671
6.19 -0.199278
6.2 -0.201898
6.21 -0.204099
6.22 -0.205457
6.23 -0.205572
6.24 -0.204086
6.25 -0.200696
6.26 -0.195166
6.27 -0.187232
6.28 -0.176817
6.29 -0.164076
6.3 -0.149138
6.31 -0.132224
6.32 -0.113632
6.33 -0.0937341
6.34 -0.072961
6.35 -0.0517891
6.36 -0.0307782
6.37 -0.0104835
6.38 0.00858828
6.39 0.0259567
6.4 0.0411859
6.41 0.0538995
6.42 0.0637938
6.43 0.0706491
6.44 0.0742414
6.45 0.0744367
6.46 0.0715306
6.47 0.0657089
6.48 0.057247
6.49 0.046501
6.5 0.0338961
6.51 0.019913
6.52 0.00507148
6.53 -0.0100693
6.54 -0.0248935
6.55 -0.0388686
6.56 -0.0515044
6.57 -0.0623625
6.58 -0.0710706
6.59 -0.0773343
6.6 -0.0809464
6.61 -0.0817535
6.62 -0.0795644
6.63 -0.0747047
6.64 -0.0673691
6.65 -0.0578369
6.66 -0.0464622
6.67 -0.0336615
6.68 -0.0198992
6.69 -0.00567173
6.7 0.00847779
6.71 0.0219801
6.72 0.0343558
6.73 0.0451602
6.74 0.0540018
6.75 0.0605546
6.76 0.0645686
6.77 0.0658762
6.78 0.0643973
6.79 0.0598909
6.8 0.0527306
6.81 0.0431174
6.82 0.0313218
6.83 0.0176775
6.84 0.00256895
6.85 -0.0135822
6.86 -0.0303319
6.87 -0.0472165
6.88 -0.0637357
6.89 -0.0794717
6.9 -0.0940512
6.91 -0.107152
6.92 -0.118513
6.93 -0.127941
6.94 -0.135315
6.95 -0.14059
6.96 -0.143642
6.97 -0.144718
6.98 -0.144035
6.99 -0.141828
7 -0.138382
7.01 -0.134013
7.02 -0.129061
7.03 -0.123875
7.04 -0.11881
7.05 -0.11425
7.06 -0.110477
7.07 -0.107744
7.08 -0.106253
7.09 -0.106153
7.1 -0.107533
7.11 -0.110422
7.12 -0.114786
7.13 -0.120613
7.14 -0.127694
7.15 -0.135783
7.16 -0.144645
7.17 -0.154015
7.18 -0.163616
7.19 -0.173163
7.2 -0.182376
7.21 -0.190988
7.22 -0.198675
7.23 -0.205297
7.24 -0.210706
7.25 -0.214797
7.26 -0.217517
7.27 -0.218864
7.28 -0.218888
7.29 -0.217684
7.3 -0.215349
7.31 -0.212085
7.32 -0.208152
7.33 -0.20378
7.34 -0.199206
7.35 -0.194667
7.36 -0.19039
7.37 -0.186584
7.38 -0.183431
7.39 -0.181161
7.4 -0.179823
7.41 -0.179469
7.42 -0.180111
7.43 -0.181716
7.44 -0.18421
7.45 -0.187479
7.46 -0.191371
7.47 -0.195718
7.48 -0.200303
7.49 -0.204886
7.5 -0.209252
7.51 -0.213189
7.52 -0.216505
7.53 -0.219025
7.54 -0.220606
7.55 -0.221139
7.56 -0.220472
7.57 -0.218631
7.58 -0.215667
7.59 -0.211645
7.6 -0.20667
7.61 -0.20088
7.62 -0.194447
7.63 -0.187563
7.64 -0.180437
7.65 -0.173309
7.66 -0.166413
7.67 -0.159957
7.68 -0.154131
7.69 -0.149102
7.7 -0.145006
7.71 -0.141944
7.72 -0.139982
7.73 -0.139202
7.74 -0.139565
7.75 -0.14096
7.76 -0.143287
7.77 -0.146412
7.78 -0.150178
7.79 -0.154405
7.8 -0.158903
7.81 -0.163473
7.82 -0.167893
7.83 -0.171974
7.84 -0.175554
7.85 -0.178493
7.86 -0.18068
7.87 -0.182037
7.88 -0.182523
7.89 -0.182133
7.9 -0.180868
7.91 -0.178796
7.92 -0.176067
7.93 -0.172814
7.94 -0.169191
7.95 -0.165366
7.96 -0.161513
7.97 -0.157811
7.98 -0.154428
7.99 -0.151573
8 -0.149361
8.01 -0.147893
8.02 -0.147243
8.03 -0.147456
8.04 -0.148539
8.05 -0.150465
8.06 -0.153172
8.07 -0.156578
8.08 -0.160571
8.09 -0.164951
8.1 -0.16955
8.11 -0.174188
8.12 -0.178682
8.13 -0.182852
8.14 -0.186529
8.15 -0.189558
8.16 -0.191753
8.17 -0.193025
8.18 -0.193334
8.19 -0.192649
8.2 -0.190975
8.21 -0.18835
8.22 -0.184847
8.23 -0.180571
8.24 -0.175648
8.25 -0.17021
8.26 -0.164483
8.27 -0.158648
8.28 -0.152886
8.29 -0.147373
8.3 -0.142276
8.31 -0.137741
8.32 -0.13389
8.33 -0.130861
8.34 -0.128721
8.35 -0.127454
8.36 -0.12705
8.37 -0.12746
8.38 -0.128606
8.39 -0.130381
8.4 -0.132651
8.41 -0.135263
8.42 -0.138052
8.43 -0.140811
8.44 -0.143366
8.45 -0.145549
8.46 -0.147205
8.47 -0.148199
8.48 -0.148421
8.49 -0.147788
8.5 -0.146219
8.51 -0.143669
8.52 -0.140221
8.53 -0.13593
8.54 -0.130885
8.55 -0.125199
8.56 -0.119009
8.57 -0.112472
8.58 -0.105754
8.59 -0.0990382
8.6 -0.0925146
8.61 -0.0863438
8.62 -0.0806722
8.63 -0.0756256
8.64 -0.0713048
8.65 -0.0677818
8.66 -0.0650974
8.67 -0.0632728
8.68 -0.0623274
8.69 -0.0621306
8.7 -0.0625889
8.71 -0.0635836
8.72 -0.0649751
8.73 -0.0666086
8.74 -0.0683196
8.75 -0.0699404
8.76 -0.0712833
8.77 -0.0721813
8.78 -0.0725099
8.79 -0.0721567
8.8 -0.0710355
8.81 -0.0690902
8.82 -0.0662971
8.83 -0.0626657
8.84 -0.0582386
8.85 -0.053034
8.86 -0.047237
8.87 -0.0409839
8.88 -0.034431
8.89 -0.0277496
8.9 -0.0211196
8.91 -0.0147233
8.92 -0.00873882
8.93 -0.00336393
8.94 0.00122348
8.95 0.00493223
8.96 0.00766585
8.97 0.00935869
8.98 0.00997825
8.99 0.00952627
9 0.00803877
9.01 0.00558483
9.02 0.00220544
9.03 -0.0019005
9.04 -0.00656588
9.05 -0.0116201
9.06 -0.016882
9.07 -0.0221664
9.08 -0.02729
9.09 -0.0320776
9.1 -0.0363523
9.11 -0.0399303
9.12 -0.0427365
9.13 -0.0446881
9.14 -0.0457332
9.15 -0.0458522
9.16 -0.0450584
9.17 -0.0433964
9.18 -0.040941
9.19 -0.0377577
9.2 -0.034011
9.21 -0.0298682
9.22 -0.0254878
9.23 -0.0210349
9.24 -0.0166749
9.25 -0.0125687
9.26 -0.00886678
9.27 -0.00571061
9.28 -0.00327569
9.29 -0.00160131
9.3 -0.000748605
9.31 -0.000751206
9.32 -0.00161479
9.33 -0.00331764
9.34 -0.0058121
9.35 -0.0090269
9.36 -0.0128953
9.37 -0.0172915
9.38 -0.0220642
9.39 -0.0270834
9.4 -0.0322174
9.41 -0.0373372
9.42 -0.0423209
9.43 -0.0470574
9.44 -0.0514502
9.45 -0.0553778
9.46 -0.0588133
9.47 -0.0617253
9.48 -0.0641011
9.49 -0.0659483
9.5 -0.0672935
9.51 -0.0681805
9.52 -0.0686679
9.53 -0.068817
9.54 -0.0687079
9.55 -0.0684426
9.56 -0.0681027
9.57 -0.0677658
9.58 -0.0675022
9.59 -0.0673719
9.6 -0.0674224
9.61 -0.0676868
9.62 -0.0681997
9.63 -0.0689487
9.64 -0.0699112
9.65 -0.071055
9.66 -0.0723356
9.67 -0.0736979
9.68 -0.0750789
9.69 -0.0764107
9.7 -0.0776206
9.71 -0.0786227
9.72 -0.0793651
9.73 -0.0797943
9.74 -0.0798676
9.75 -0.079555
9.76 -0.0788406
9.77 -0.077724
9.78 -0.0762198
9.79 -0.0743402
9.8 -0.0721429
9.81 -0.0697001
9.82 -0.0670806
9.83 -0.0643603
9.84 -0.0616192
9.85 -0.0589386
9.86 -0.056398
9.87 -0.0540722
9.88 -0.0520587
9.89 -0.0503896
9.9 -0.0491049
9.91 -0.0482302
9.92 -0.0477754
9.93 -0.0477342
9.94 -0.0480851
9.95 -0.0487916
9.96 -0.0498138
9.97 -0.0510846
9.98 -0.0525162
9.99 -0.0540315
10 -0.0555507
10.01 -0.0569949
10.02 -0.0582886
10.03 -0.0593633
10.04 -0.0601595
10.05 -0.0606
10.06 -0.0606713
10.07 -0.0603614
10.08 -0.0596695
10.09 -0.0586096
10.1 -0.0572109
10.11 -0.0555155
10.12 -0.0535774
10.13 -0.0514574
10.14 -0.0492295
10.15 -0.0469803
10.16 -0.0447846
10.17 -0.042715
10.18 -0.0408381
10.19 -0.0392123
10.2 -0.0378856
10.21 -0.0368934
10.22 -0.0362808
10.23 -0.0360406
10.24 -0.0361505
10.25 -0.0365842
10.26 -0.037302
10.27 -0.0382523
10.28 -0.0393737
10.29 -0.0405971
10.3 -0.0418481
10.31 -0.0430398
10.32 -0.0440968
10.33 -0.0449495
10.34 -0.0455358
10.35 -0.0458031
10.36 -0.0457103
10.37 -0.0452298
10.38 -0.0443476
10.39 -0.0430457
10.4 -0.0413448
10.41 -0.0392951
10.42 -0.0369409
10.43 -0.0343365
10.44 -0.0315445
10.45 -0.0286331
10.46 -0.0256733
10.47 -0.0227361
10.48 -0.0199036
10.49 -0.0172352
10.5 -0.0147834
10.51 -0.0125906
10.52 -0.0106876
10.53 -0.00909223
10.54 -0.00780886
10.55 -0.00682854
10.56 -0.00613787
10.57 -0.00570484
10.58 -0.00546711
10.59 -0.00537175
10.6 -0.00536076
10.61 -0.00537373
10.62 -0.00535046
10.63 -0.00523366
10.64 -0.00497143
10.65 -0.00450312
10.66 -0.0038025
10.67 -0.00285334
10.68 -0.00164783
10.69 -0.000190995
10.7 0.00149951
10.71 0.00339412
10.72 0.00545266
10.73 0.00762712
10.74 0.0098588
10.75 0.0120792
10.76 0.0142274
10.77 0.0162446
10.78 0.0180772
10.79 0.0196792
10.8 0.0210148
10.81 0.0220604
10.82 0.0227888
10.83 0.0232136
10.84 0.0233693
10.85 0.0232939
10.86 0.0230388
10.87 0.0226678
10.88 0.0222541
10.89 0.0218781
10.9 0.0216251
10.91 0.0216066
10.92 0.0218912
10.93 0.0225526
10.94 0.0236542
10.95 0.0252454
10.96 0.0273595
10.97 0.0300116
10.98 0.0331969
10.99 0.0369093
11 0.0410992
11.01 0.0456702
11.02 0.0505343
11.03 0.0555884
11.04 0.0607173
11.05 0.065797
11.06 0.0706994
11.07 0.075296
11.08 0.0794178
11.09 0.0829706
11.1 0.0858618
11.11 0.0880108
11.12 0.0893585
11.13 0.0898695
11.14 0.089534
11.15 0.0883691
11.16 0.0863995
11.17 0.0836762
11.18 0.0803513
11.19 0.0765449
11.2 0.0723941
11.21 0.0680488
11.22 0.0636674
11.23 0.0594109
11.24 0.0554382
11.25 0.0519385
11.26 0.0490462
11.27 0.046864
11.28 0.0454844
11.29 0.0449737
11.3 0.0453691
11.31 0.0466773
11.32 0.048874
11.33 0.0519121
11.34 0.0557502
11.35 0.0602026
11.36 0.0651299
11.37 0.0703753
11.38 0.0757686
11.39 0.081133
11.4 0.0862896
11.41 0.0910642
11.42 0.0952577
11.43 0.0987095
11.44 0.101323
11.45 0.103003
11.46 0.103684
11.47 0.103332
11.48 0.101946
11.49 0.0995593
11.5 0.0962368
11.51 0.0920099
11.52 0.0870878
11.53 0.0816257
11.54 0.0757925
11.55 0.0697689
11.56 0.0637415
11.57 0.057897
11.58 0.0524159
11.59 0.0474904
11.6 0.0433033
11.61 0.0399433
11.62 0.0375045
11.63 0.0360501
11.64 0.0356106
11.65 0.0361828
11.66 0.0377298
11.67 0.0401828
11.68 0.0434934
11.69 0.0474763
11.7 0.0519637
11.71 0.0567875
11.72 0.0617696
11.73 0.0667272
11.74 0.0714795
11.75 0.0758529
11.76 0.0796737
11.77 0.0827492
11.78 0.0850089
11.79 0.0863675
11.8 0.0867697
11.81 0.0861919
11.82 0.0846427
11.83 0.0821618
11.84 0.0788194
11.85 0.0746748
11.86 0.0698838
11.87 0.0646176
11.88 0.0590337
11.89 0.0532976
11.9 0.0475774
11.91 0.0420376
11.92 0.0368344
11.93 0.0321126
11.94 0.0280587
11.95 0.0247236
11.96 0.022178
11.97 0.0204647
11.98 0.019598
11.99 0.0195636
12 0.0203195
12.01 0.0217981
12.02 0.0239312
12.03 0.0265969
12.04 0.0296354
12.05 0.0329092
12.06 0.0362763
12.07 0.0395951
12.08 0.0427299
12.09 0.0455545
12.1 0.0479575
12.11 0.0497966
12.12 0.0510333
12.13 0.0516303
12.14 0.0515694
12.15 0.0508576
12.16 0.0495266
12.17 0.0476314
12.18 0.0452482
12.19 0.0424638
12.2 0.0393899
12.21 0.0361742
12.22 0.0329442
12.23 0.0298285
12.24 0.0269527
12.25 0.0244346
12.26 0.0223811
12.27 0.0208842
12.28 0.0200643
12.29 0.0199536
12.3 0.0205625
12.31 0.0218965
12.32 0.0239395
12.33 0.0266536
12.34 0.029982
12.35 0.03385
12.36 0.0381726
12.37 0.0428627
12.38 0.0477743
12.39 0.052794
12.4 0.0578089
12.41 0.0627097
12.42 0.0673944
12.43 0.071771
12.44 0.0757603
12.45 0.0792721
12.46 0.0822583
12.47 0.0847118
12.48 0.0866229
12.49 0.0879989
12.5 0.0888628
12.51 0.0892519
12.52 0.0892157
12.53 0.0888136
12.54 0.0880916
12.55 0.0871532
12.56 0.0860724
12.57 0.0849202
12.58 0.0837633
12.59 0.0826622
12.6 0.0816685
12.61 0.0808241
12.62 0.0801668
12.63 0.0797209
12.64 0.0794799
12.65 0.0794365
12.66 0.079573
12.67 0.0798624
12.68 0.0802695
12.69 0.0807536
12.7 0.0812695
12.71 0.0817657
12.72 0.0821917
12.73 0.082504
12.74 0.0826633
12.75 0.082636
12.76 0.0823962
12.77 0.081926
12.78 0.0812166
12.79 0.0802638
12.8 0.0790667
12.81 0.0776632
12.82 0.0760811
12.83 0.0743547
12.84 0.0725237
12.85 0.0706313
12.86 0.068723
12.87 0.0668447
12.88 0.0650485
12.89 0.0633791
12.9 0.0618706
12.91 0.0605548
12.92 0.0594569
12.93 0.0585953
12.94 0.0579808
12.95 0.0576171
12.96 0.0575013
12.97 0.0576415
12.98 0.0579973
12.99 0.0585455
13 0.0592589
13.01 0.0601072
13.02 0.0610582
13.03 0.062079
13.04 0.063137
13.05 0.0642
13.06 0.0652355
13.07 0.0662178
13.08 0.0671253
13.09 0.0679398
13.1 0.0686473
13.11 0.0692375
13.12 0.069704
13.13 0.0700433
13.14 0.0702448
13.15 0.07032
13.16 0.0702744
13.17 0.070113
13.18 0.0698414
13.19 0.0694652
13.2 0.0689897
13.21 0.0684194
13.22 0.0677559
13.23 0.0669994
13.24 0.0661581
13.25 0.0652343
13.26 0.0642299
13.27 0.0631475
13.28 0.0619904
13.29 0.0607633
13.3 0.0594726
13.31 0.0581238
13.32 0.0567317
13.33 0.0553119
13.34 0.053881
13.35 0.0524582
13.36 0.0510647
13.37 0.0497234
13.38 0.048458
13.39 0.0472942
13.4 0.046266
13.41 0.045386
13.42 0.0446726
13.43 0.0441399
13.44 0.0437978
13.45 0.0436501
13.46 0.0436948
13.47 0.0439228
13.48 0.0443261
13.49 0.0448763
13.5 0.0455355
13.51 0.0462668
13.52 0.0470284
13.53 0.0477743
13.54 0.048456
13.55 0.0490236
13.56 0.0494281
13.57 0.049599
13.58 0.0495093
13.59 0.0491238
13.6 0.0484141
13.61 0.0473607
13.62 0.0459542
13.63 0.0441958
13.64 0.0420982
13.65 0.0396749
13.66 0.0369609
13.67 0.0340219
13.68 0.0309148
13.69 0.0277041
13.7 0.0244601
13.71 0.0212571
13.72 0.0181707
13.73 0.0152762
13.74 0.0126707
13.75 0.010411
13.76 0.00854878
13.77 0.00713079
13.78 0.00619188
13.79 0.00575385
13.8 0.00582447
13.81 0.00639707
13.82 0.00745996
13.83 0.00899561
13.84 0.0109179
13.85 0.0131643
13.86 0.0156627
13.87 0.0183338
13.88 0.0210933
13.89 0.0238547
13.9 0.0265319
13.91 0.0290267
13.92 0.0312588
13.93 0.0331671
13.94 0.0346956
13.95 0.0358008
13.96 0.0364531
13.97 0.0366375
13.98 0.0363541
13.99 0.0356157
14 0.0344206
14.01 0.0328545
14.02 0.030974
14.03 0.0288451
14.04 0.0265407
14.05 0.0241378
14.06 0.0217155
14.07 0.0193517
14.08 0.0171301
14.09 0.0151276
14.1 0.0133949
14.11 0.0119792
14.12 0.0109156
14.13 0.010226
14.14 0.00991889
14.15 0.0099892
14.16 0.0104187
14.17 0.0112012
14.18 0.0122656
14.19 0.0135565
14.2 0.0150155
14.21 0.0165796
14.22 0.0181846
14.23 0.0197666
14.24 0.0212653
14.25 0.0226199
14.26 0.0237721
14.27 0.0246956
14.28 0.0253653
14.29 0.0257681
14.3 0.025903
14.31 0.0257807
14.32 0.0254236
14.33 0.0248644
14.34 0.0241372
14.35 0.0233041
14.36 0.022424
14.37 0.0215545
14.38 0.0207532
14.39 0.0200751
14.4 0.0195709
14.41 0.0192846
14.42 0.0192556
14.43 0.0195293
14.44 0.0200963
14.45 0.020956
14.46 0.0220959
14.47 0.0234916
14.48 0.0251076
14.49 0.0268989
14.5 0.0288121
14.51 0.0307873
14.52 0.0327521
14.53 0.0346387
14.54 0.0363828
14.55 0.0379241
14.56 0.0392078
14.57 0.0401875
14.58 0.0408262
14.59 0.0410981
14.6 0.0409544
14.61 0.040431
14.62 0.0395437
14.63 0.0383197
14.64 0.0367976
14.65 0.0350261
14.66 0.0330621
14.67 0.0309685
14.68 0.0288127
14.69 0.0266715
14.7 0.0246148
14.71 0.0227055
14.72 0.0210001
14.73 0.0195467
14.74 0.0183835
14.75 0.0175372
14.76 0.0170224
14.77 0.0168655
14.78 0.0170324
14.79 0.0174913
14.8 0.0182047
14.81 0.0191261
14.82 0.0202009
14.83 0.0213689
14.84 0.0225666
14.85 0.0237274
14.86 0.024777
14.87 0.0256611
14.88 0.0263289
14.89 0.0267386
14.9 0.0268585
14.91 0.0266684
14.92 0.0261607
14.93 0.0253402
14.94 0.0242078
14.95 0.0228063
14.96 0.0211876
14.97 0.0194024
14.98 0.0175086
14.99 0.0155685
15 0.0136465
15.01 0.0118068
15.02 0.0101121
15.03 0.00863936
15.04 0.00742163
15.05 0.00649545
15.06 0.00588593
15.07 0.00560565
15.08 0.00565404
15.09 0.00601722
15.1 0.00666835
15.11 0.00757753
15.12 0.00868766
15.13 0.00992618
15.14 0.0112258
15.15 0.0125153
15.16 0.0137217
15.17 0.0147735
15.18 0.0156027
15.19 0.0161478
15.2 0.0163231
15.21 0.0161108
15.22 0.0154869
15.23 0.0144386
15.24 0.0129675
15.25 0.0110895
15.26 0.00883505
15.27 0.0062477
15.28 0.00337664
15.29 0.00028927
15.3 -0.00292199
15.31 -0.00617699
15.32 -0.00939341
15.33 -0.0124895
15.34 -0.0153866
15.35 -0.0180123
15.36 -0.0203024
15.37 -0.0221727
15.38 -0.0235974
15.39 -0.0245619
15.4 -0.0250565
15.41 -0.0250864
15.42 -0.0246716
15.43 -0.0238458
15.44 -0.0226556
15.45 -0.0211549
15.46 -0.0194023
15.47 -0.0174956
15.48 -0.0155125
15.49 -0.0135313
15.5 -0.0116283
15.51 -0.00987551
15.52 -0.00833783
15.53 -0.00707131
15.54 -0.00614033
15.55 -0.00557557
15.56 -0.00538098
15.57 -0.00555984
15.58 -0.00610202
15.59 -0.00698464
15.6 -0.00817317
15.61 -0.00962286
15.62 -0.0112806
15.63 -0.0130949
15.64 -0.0149833
15.65 -0.0168809
15.66 -0.0187241
15.67 -0.0204536
15.68 -0.0220157
15.69 -0.0233645
15.7 -0.0244635
15.71 -0.0252756
15.72 -0.025781
15.73 -0.0259951
15.74 -0.0259293
15.75 -0.0256056
15.76 -0.025056
15.77 -0.0243205
15.78 -0.0234459
15.79 -0.0224837
15.8 -0.0214895
15.81 -0.0205244
15.82 -0.0196408
15.83 -0.0188855
15.84 -0.0182996
15.85 -0.0179159
15.86 -0.0177581
15.87 -0.0178398
15.88 -0.0181696
15.89 -0.0187486
15.9 -0.0195392
15.91 -0.0205112
15.92 -0.0216263
15.93 -0.0228392
15.94 -0.0241
15.95 -0.0253553
15.96 -0.026551
15.97 -0.0276234
15.98 -0.0285213
15.99 -0.0292053
16 -0.0296393
16.01 -0.0297962
16.02 -0.0296587
16.03 -0.0292201
16.04 -0.0284846
16.05 -0.0274652
16.06 -0.0261708
16.07 -0.0246627
16.08 -0.0229859
16.09 -0.0211921
16.1 -0.0193371
16.11 -0.0174796
16.12 -0.0156787
16.13 -0.0139919
16.14 -0.0124834
16.15 -0.0112068
16.16 -0.0101929
16.17 -0.00947163
16.18 -0.00906299
16.19 -0.00897617
16.2 -0.00920939
16.21 -0.00974995
16.22 -0.0105748
16.23 -0.0116696
16.24 -0.0129688
16.25 -0.0144216
16.26 -0.0159744
16.27 -0.017571
16.28 -0.0191548
16.29 -0.0206703
16.3 -0.0220657
16.31 -0.0232874
16.32 -0.0242856
16.33 -0.0250416
16.34 -0.0255353
16.35 -0.0257569
16.36 -0.025707
16.37 -0.0253961
16.38 -0.0248449
16.39 -0.0240829
16.4 -0.0231383
16.41 -0.0220682
16.42 -0.0209259
16.43 -0.0197631
16.44 -0.0186322
16.45 -0.0175842
16.46 -0.0166669
16.47 -0.0159235
16.48 -0.0153947
16.49 -0.0151267
16.5 -0.015121
16.51 -0.0153867
16.52 -0.0159233
16.53 -0.0167207
16.54 -0.0177599
16.55 -0.0190135
16.56 -0.0204468
16.57 -0.0220242
16.58 -0.0236923
16.59 -0.0253973
16.6 -0.0270898
16.61 -0.0287214
16.62 -0.0302461
16.63 -0.031622
16.64 -0.0328126
16.65 -0.0337877
16.66 -0.034501
16.67 -0.0349607
16.68 -0.0351625
16.69 -0.0351103
16.7 -0.0348163
16.71 -0.0342998
16.72 -0.0335865
16.73 -0.0327079
16.74 -0.0316958
16.75 -0.0305923
16.76 -0.0294443
16.77 -0.0282916
16.78 -0.0271724
16.79 -0.0261221
16.8 -0.0251723
16.81 -0.0243494
16.82 -0.0236748
16.83 -0.0231771
16.84 -0.0228545
16.85 -0.0227057
16.86 -0.0227257
16.87 -0.022904
16.88 -0.0232256
16.89 -0.0236709
16.9 -0.0242177
16.91 -0.0248424
16.92 -0.0255186
16.93 -0.0262156
16.94 -0.0269084
16.95 -0.0275742
16.96 -0.0281929
16.97 -0.0287474
16.98 -0.0292243
16.99 -0.0296141
17 -0.0299052
17.01 -0.0300993
17.02 -0.0302022
17.03 -0.0302198
17.04 -0.0301608
17.05 -0.0300361
17.06 -0.0298578
17.07 -0.0296391
17.08 -0.0293932
17.09 -0.0291335
17.1 -0.0288739
17.11 -0.0286251
17.12 -0.0283958
17.13 -0.0281932
17.14 -0.0280225
17.15 -0.0278871
17.16 -0.0277886
17.17 -0.0277291
17.18 -0.0277073
17.19 -0.0277198
17.2 -0.0277645
17.21 -0.0278394
17.22 -0.0279431
17.23 -0.0280748
17.24 -0.0282343
17.25 -0.028423
17.26 -0.0286459
17.27 -0.0289039
17.28 -0.0292007
17.29 -0.0295406
17.3 -0.0299277
17.31 -0.0303657
17.32 -0.0308573
17.33 -0.0314036
17.34 -0.0320052
17.35 -0.0326594
17.36 -0.0333561
17.37 -0.0340851
17.38 -0.0348331
17.39 -0.0355837
17.4 -0.0363173
17.41 -0.037012
17.42 -0.0376437
17.43 -0.0381786
17.44 -0.0385925
17.45 -0.0388623
17.46 -0.0389642
17.47 -0.0388773
17.48 -0.0385843
17.49 -0.0380726
17.5 -0.037335
17.51 -0.0363669
17.52 -0.0351624
17.53 -0.0337535
17.54 -0.0321623
17.55 -0.0304173
17.56 -0.0285539
17.57 -0.0266128
17.58 -0.0246396
17.59 -0.0226832
17.6 -0.0208013
17.61 -0.0190503
17.62 -0.017477
17.63 -0.0161279
17.64 -0.0150443
17.65 -0.0142615
17.66 -0.0138064
17.67 -0.0136972
17.68 -0.0139426
17.69 -0.0145711
17.7 -0.0155338
17.71 -0.0168042
17.72 -0.0183457
17.73 -0.0201123
17.74 -0.0220502
17.75 -0.024099
17.76 -0.0261937
17.77 -0.028263
17.78 -0.0302291
17.79 -0.0320282
17.8 -0.0335992
17.81 -0.0348877
17.82 -0.0358477
17.83 -0.0364435
17.84 -0.036651
17.85 -0.0364584
17.86 -0.0358365
17.87 -0.03483
17.88 -0.0334752
17.89 -0.0318149
17.9 -0.0299024
17.91 -0.0278003
17.92 -0.0255779
17.93 -0.0233097
17.94 -0.021075
17.95 -0.0189631
17.96 -0.0170435
17.97 -0.0153826
17.98 -0.0140383
17.99 -0.0130581
18 -0.0124774
18.01 -0.012318
18.02 -0.0125875
18.03 -0.0133044
18.04 -0.0144272
18.05 -0.0159041
18.06 -0.0176832
18.07 -0.0197016
18.08 -0.0218873
18.09 -0.0241619
18.1 -0.026443
18.11 -0.0286455
18.12 -0.0306676
18.13 -0.0324411
18.14 -0.0338977
18.15 -0.0349795
18.16 -0.0356406
18.17 -0.0358489
18.18 -0.0355872
18.19 -0.0348537
18.2 -0.0336415
18.21 -0.0319872
18.22 -0.0299579
18.23 -0.0276125
18.24 -0.0250201
18.25 -0.0222578
18.26 -0.0194079
18.27 -0.0165551
18.28 -0.0137838
18.29 -0.0111961
18.3 -0.00885808
18.31 -0.00683245
18.32 -0.00517123
18.33 -0.00391321
18.34 -0.00308266
18.35 -0.00268859
18.36 -0.00272448
18.37 -0.00318115
18.38 -0.00402679
18.39 -0.00518513
18.4 -0.00659402
18.41 -0.00818311
18.42 -0.00987654
18.43 -0.0115957
18.44 -0.013262
18.45 -0.0148001
18.46 -0.0161213
18.47 -0.0171699
18.48 -0.0179028
18.49 -0.0182849
18.5 -0.0182958
18.51 -0.0179297
18.52 -0.017196
18.53 -0.0161187
18.54 -0.0147314
18.55 -0.013076
18.56 -0.0112386
18.57 -0.00928984
18.58 -0.00730539
18.59 -0.00536303
18.6 -0.00353977
18.61 -0.00190896
18.62 -0.000537525
18.63 0.000495513
18.64 0.00114629
18.65 0.00139636
18.66 0.00122992
18.67 0.000646437
18.68 -0.000339282
18.69 -0.00169752
18.7 -0.00338469
18.71 -0.00534531
18.72 -0.00752429
18.73 -0.00982157
18.74 -0.0121567
18.75 -0.0144477
18.76 -0.0166136
18.77 -0.0185781
18.78 -0.0202718
18.79 -0.0216347
18.8 -0.0226015
18.81 -0.0231312
18.82 -0.023228
18.83 -0.0228922
18.84 -0.0221394
18.85 -0.0210005
18.86 -0.0195207
18.87 -0.0177575
18.88 -0.0157787
18.89 -0.0136555
18.9 -0.011486
18.91 -0.00935478
18.92 -0.00734303
18.93 -0.00552695
18.94 -0.00397516
18.95 -0.00274604
18.96 -0.00188556
18.97 -0.00143649
18.98 -0.00143242
18.99 -0.00184204
19 -0.00264541
19.01 -0.00380706
19.02 -0.00527727
19.03 -0.00699378
19.04 -0.00888403
19.05 -0.0108677
19.06 -0.0128545
19.07 -0.0147482
19.08 -0.0164644
19.09 -0.0179244
19.1 -0.0190579
19.11 -0.0198055
19.12 -0.0201212
19.13 -0.0199741
19.14 -0.0193445
19.15 -0.0182022
19.16 -0.0166108
19.17 -0.0146103
19.18 -0.0122552
19.19 -0.00961361
19.2 -0.00676409
19.21 -0.00379341
19.22 -0.000793384
19.23 0.00213424
19.24 0.00488662
19.25 0.00738132
19.26 0.00954113
19.27 0.0113002
19.28 0.0126063
19.29 0.0134228
19.3 0.0137299
19.31 0.0135251
19.32 0.0127823
19.33 0.0115816
19.34 0.00997719
19.35 0.00803483
19.36 0.00583154
19.37 0.003453
19.38 0.000990516
19.39 -0.00146224
19.4 -0.0038057
19.41 -0.00593687
19.42 -0.00778376
19.43 -0.00927838
19.44 -0.0103661
19.45 -0.0110073
19.46 -0.011179
19.47 -0.0108754
19.48 -0.010108
19.49 -0.00887624
19.5 -0.00725433
19.51 -0.00531217
19.52 -0.00312206
19.53 -0.000764774
19.54 0.00167344
19.55 0.00410405
19.56 0.00643952
19.57 0.00859158
19.58 0.0104628
19.59 0.0120046
19.6 0.013167
19.61 0.0139152
19.62 0.0142304
19.63 0.0141109
19.64 0.013572
19.65 0.0126452
19.66 0.0113613
19.67 0.00979722
19.68 0.00803922
19.69 0.00616934
19.7 0.00427456
19.71 0.00244356
19.72 0.00076347
19.73 -0.000683376
19.74 -0.00182115
19.75 -0.00254865
19.76 -0.00284765
19.77 -0.00268635
19.78 -0.00204962
19.79 -0.000939729
19.8 0.000623667
19.81 0.00260408
19.82 0.00494938
19.83 0.00760288
19.84 0.0104777
19.85 0.0134707
19.86 0.0164885
19.87 0.0194356
19.88 0.0222182
19.89 0.0247472
19.9 0.0269412
19.91 0.0287294
19.92 0.0300124
19.93 0.0307794
19.94 0.0310142
19.95 0.0307131
19.96 0.0298897
19.97 0.0285755
19.98 0.0268177
19.99 0.0246786
20 0.0222266
20.01 0.019548
20.02 0.016755
20.03 0.0139434
20.04 0.0112084
20.05 0.00864195
20.06 0.00632921
20.07 0.00434611
20.08 0.00275664
20.09 0.00164284
20.1 0.00102292
20.11 0.000898293
20.12 0.00126571
20.13 0.00210519
20.14 0.00338093
20.15 0.00504266
20.16 0.00702761
20.17 0.0092647
20.18 0.0116765
20.19 0.0141575
20.2 0.0166208
20.21 0.0189819
20.22 0.0211609
20.23 0.0230861
20.24 0.0246955
20.25 0.0259392
20.26 0.0267593
20.27 0.0271368
20.28 0.0270865
20.29 0.0266206
20.3 0.0257657
20.31 0.0245617
20.32 0.0230597
20.33 0.0213207
20.34 0.0194128
20.35 0.0174071
20.36 0.015393
20.37 0.0134448
20.38 0.0116326
20.39 0.0100203
20.4 0.00866365
20.41 0.00760858
20.42 0.00688959
20.43 0.0065422
20.44 0.00658411
20.45 0.00698815
20.46 0.00773635
20.47 0.00879975
20.48 0.0101398
20.49 0.0117099
20.5 0.0134576
20.51 0.0153262
20.52 0.0172578
20.53 0.0191856
20.54 0.021054
20.55 0.0228133
20.56 0.0244205
20.57 0.02584
20.58 0.0270455
20.59 0.0280194
20.6 0.0287494
20.61 0.0292254
20.62 0.0294778
20.63 0.0295266
20.64 0.0293983
20.65 0.0291243
20.66 0.0287395
20.67 0.0282802
20.68 0.0277828
20.69 0.0272835
20.7 0.0268167
20.71 0.0264078
20.72 0.0260763
20.73 0.0258351
20.74 0.02569
20.75 0.0256399
20.76 0.0256769
20.77 0.0257869
20.78 0.0259528
20.79 0.026144
20.8 0.0263335
20.81 0.0264937
20.82 0.0265975
20.83 0.0266197
20.84 0.0265389
20.85 0.0263384
20.86 0.0260016
20.87 0.0255241
20.88 0.0249176
20.89 0.0241945
20.9 0.0233744
20.91 0.0224838
20.92 0.0215544
20.93 0.020623
20.94 0.0197292
20.95 0.0189243
20.96 0.018247
20.97 0.0177347
20.98 0.0174215
20.99 0.0173357
21 0.0174983
21.01 0.0179221
21.02 0.0186104
21.03 0.0195637
21.04 0.0207717
21.05 0.0221889
21.06 0.0237781
21.07 0.0254941
21.08 0.0272855
21.09 0.0290961
21.1 0.0308671
21.11 0.0325389
21.12 0.0340393
21.13 0.0353156
21.14 0.0363257
21.15 0.0370314
21.16 0.0374044
21.17 0.0374274
21.18 0.0370956
21.19 0.0364163
21.2 0.035406
21.21 0.0340812
21.22 0.0325145
21.23 0.0307614
21.24 0.0288853
21.25 0.0269552
21.26 0.0250432
21.27 0.0232224
21.28 0.0215638
21.29 0.0201494
21.3 0.0190429
21.31 0.0182822
21.32 0.0179041
21.33 0.0179317
21.34 0.0183745
21.35 0.0192272
21.36 0.0204695
21.37 0.0220673
21.38 0.0239957
21.39 0.0261614
21.4 0.0284924
21.41 0.0309106
21.42 0.0333337
21.43 0.035678
21.44 0.0378612
21.45 0.0398052
21.46 0.0414257
21.47 0.0426477
21.48 0.0434437
21.49 0.0437822
21.5 0.0436468
21.51 0.0430375
21.52 0.0419706
21.53 0.0404786
21.54 0.0386087
21.55 0.0364034
21.56 0.0339619
21.57 0.0313734
21.58 0.0287268
21.59 0.0261139
21.6 0.0236259
21.61 0.0213506
21.62 0.0193691
21.63 0.0177624
21.64 0.0166174
21.65 0.0159488
21.66 0.015783
21.67 0.016129
21.68 0.016979
21.69 0.0183077
21.7 0.0200735
21.71 0.0222198
21.72 0.0246908
21.73 0.0273871
21.74 0.0302082
21.75 0.0330597
21.76 0.0358456
21.77 0.0384724
21.78 0.0408511
21.79 0.0429011
21.8 0.0445498
21.81 0.0456981
21.82 0.0463442
21.83 0.046466
21.84 0.0460589
21.85 0.0451354
21.86 0.0437244
21.87 0.0418706
21.88 0.0396327
21.89 0.0370709
21.9 0.0342755
21.91 0.0313496
21.92 0.028384
21.93 0.0254697
21.94 0.0226948
21.95 0.0201411
21.96 0.0178823
21.97 0.0159811
21.98 0.0145249
21.99 0.01352
22 0.0129791
22.01 0.0129038
22.02 0.0132802
22.03 0.0140801
22.04 0.015262
22.05 0.0167731
22.06 0.0185566
22.07 0.0205417
22.08 0.0226372
22.09 0.0247676
22.1 0.0268589
22.11 0.0288412
22.12 0.0306512
22.13 0.0322338
22.14 0.0335442
22.15 0.0345263
22.16 0.0351721
22.17 0.0354839
22.18 0.0354687
22.19 0.0351451
22.2 0.0345424
22.21 0.033699
22.22 0.0326606
22.23 0.0314772
22.24 0.0302028
22.25 0.0289033
22.26 0.0276318
22.27 0.0264375
22.28 0.0253634
22.29 0.0244456
22.3 0.023711
22.31 0.0231771
22.32 0.0228624
22.33 0.0227598
22.34 0.0228459
22.35 0.0230973
22.36 0.0234827
22.37 0.023965
22.38 0.0245025
22.39 0.0250511
22.4 0.0255664
22.41 0.0259944
22.42 0.0263002
22.43 0.026451
22.44 0.026421
22.45 0.0261927
22.46 0.0257578
22.47 0.0251175
22.48 0.0242825
22.49 0.0232676
22.5 0.0221032
22.51 0.0208368
22.52 0.0195121
22.53 0.0181764
22.54 0.0168795
22.55 0.0156712
22.56 0.0145992
22.57 0.0137079
22.58 0.013055
22.59 0.0126604
22.6 0.0125404
22.61 0.0127056
22.62 0.0131561
22.63 0.0138814
22.64 0.0148608
22.65 0.0160637
22.66 0.017454
22.67 0.0189864
22.68 0.0205948
22.69 0.0222228
22.7 0.0238127
22.71 0.0253081
22.72 0.0266553
22.73 0.0278057
22.74 0.0287178
22.75 0.0293401
22.76 0.029656
22.77 0.0296645
22.78 0.0293668
22.79 0.0287755
22.8 0.027914
22.81 0.0268157
22.82 0.025523
22.83 0.024085
22.84 0.0225553
22.85 0.0210051
22.86 0.019494
22.87 0.0180805
22.88 0.0168191
22.89 0.0157586
22.9 0.0149404
22.91 0.0143966
22.92 0.014163
22.93 0.0142508
22.94 0.0146415
22.95 0.0153194
22.96 0.0162578
22.97 0.0174199
22.98 0.01876
22.99 0.0202249
23 0.0217566
23.01 0.0232887
23.02 0.024753
23.03 0.0260893
23.04 0.0272415
23.05 0.0281597
23.06 0.028802
23.07 0.029136
23.08 0.0291404
23.09 0.0287947
23.1 0.0280914
23.11 0.027069
23.12 0.0257554
23.13 0.0241887
23.14 0.0224159
23.15 0.020491
23.16 0.0184732
23.17 0.0164248
23.18 0.0144157
23.19 0.0125117
23.2 0.0107685
23.21 0.0092363
23.22 0.00795733
23.23 0.00696419
23.24 0.00627879
23.25 0.00591164
23.26 0.00586603
23.27 0.00614625
23.28 0.0067007
23.29 0.00749322
23.3 0.00847928
23.31 0.00960771
23.32 0.0108227
23.33 0.0120659
23.34 0.0132785
23.35 0.0143959
23.36 0.0153611
23.37 0.0161327
23.38 0.0166738
23.39 0.0169573
23.4 0.0169664
23.41 0.0166954
23.42 0.0161501
23.43 0.0153475
23.44 0.0142967
23.45 0.0130602
23.46 0.0116844
23.47 0.0102213
23.48 0.00872686
23.49 0.00725846
23.5 0.00587303
23.51 0.00462477
23.52 0.00357203
23.53 0.0027655
23.54 0.00222645
23.55 0.00197681
23.56 0.00202765
23.57 0.00237859
23.58 0.00301785
23.59 0.00392255
23.6 0.00505951
23.61 0.0063973
23.62 0.00786848
23.63 0.00941323
23.64 0.0109715
23.65 0.0124822
23.66 0.0138854
23.67 0.0151245
23.68 0.0161483
23.69 0.016906
23.7 0.0173459
23.71 0.0174647
23.72 0.0172518
23.73 0.0167081
23.74 0.0158465
23.75 0.014691
23.76 0.0132764
23.77 0.0116465
23.78 0.00984648
23.79 0.00794617
23.8 0.00601265
23.81 0.00410919
23.82 0.00229799
23.83 0.000638032
23.84 -0.00081698
23.85 -0.00202045
23.86 -0.00293208
23.87 -0.00349714
23.88 -0.00372702
23.89 -0.00361895
23.9 -0.00318164
23.91 -0.0024349
23.92 -0.00140881
23.93 -0.000142583
23.94 0.0013169
23.95 0.00292062
23.96 0.00460412
23.97 0.00630215
23.98 0.00795648
23.99 0.00951157
24 0.0109165
24.01 0.0121267
24.02 0.0131052
24.03 0.0138242
24.04 0.0142406
24.05 0.0143694
24.06 0.0142173
24.07 0.0137985
24.08 0.0131363
24.09 0.0122618
24.1 0.0112126
24.11 0.010031
24.12 0.00876153
24.13 0.00745503
24.14 0.00616234
24.15 0.00492635
24.16 0.00378542
24.17 0.00277199
24.18 0.00191144
24.19 0.00122115
24.2 0.000710043
24.21 0.000390493
24.22 0.000243646
24.23 0.000247287
24.24 0.000376587
24.25 0.000601078
24.26 0.00088609
24.27 0.00119434
24.28 0.00148764
24.29 0.00172721
24.3 0.00186954
24.31 0.00188978
24.32 0.00176446
24.33 0.00147721
24.34 0.00101957
24.35 0.000391564
24.36 -0.000398171
24.37 -0.00133252
24.38 -0.00239117
24.39 -0.00353533
24.4 -0.00472123
24.41 -0.00590559
24.42 -0.00704277
24.43 -0.00808657
24.44 -0.00899209
24.45 -0.0097176
24.46 -0.0102262
24.47 -0.0104623
24.48 -0.0104267
24.49 -0.0101086
24.5 -0.00950707
24.51 -0.00863183
24.52 -0.00750279
24.53 -0.00614985
24.54 -0.00461205
24.55 -0.00293319
24.56 -0.00117285
24.57 0.000602611
24.58 0.00233173
24.59 0.00395284
24.6 0.00540622
24.61 0.00663623
24.62 0.00759327
24.63 0.00823563
24.64 0.00850186
24.65 0.00839251
24.66 0.00790601
24.67 0.00704771
24.68 0.00583522
24.69 0.00429797
24.7 0.00247639
24.71 0.000420726
24.72 -0.00181311
24.73 -0.0041576
24.74 -0.00653117
24.75 -0.00886256
24.76 -0.0110814
24.77 -0.0131204
24.78 -0.0149179
24.79 -0.0164194
24.8 -0.0175799
24.81 -0.0183396
24.82 -0.0186876
24.83 -0.0186291
24.84 -0.01817
24.85 -0.0173294
24.86 -0.0161383
24.87 -0.0146389
24.88 -0.0128828
24.89 -0.0109287
24.9 -0.00883913
24.91 -0.00670017
24.92 -0.0045827
24.93 -0.0025562
24.94 -0.000686496
24.95 0.000966337
24.96 0.00234987
24.97 0.00342096
24.98 0.00412939
24.99 0.00445363
25 0.00440386
25.01 0.00398625
25.02 0.00321881
25.03 0.00213062
25.04 0.000760713
25.05 -0.000843319
25.06 -0.00262702
25.07 -0.00453598
25.08 -0.00649259
25.09 -0.00843301
25.1 -0.010296
25.11 -0.0120238
25.12 -0.0135647
25.13 -0.0148734
25.14 -0.0159137
25.15 -0.0166482
25.16 -0.01705
25.17 -0.0171337
25.18 -0.0169057
25.19 -0.0163822
25.2 -0.0155885
25.21 -0.014558
25.22 -0.0133309
25.23 -0.0119524
25.24 -0.0104681
25.25 -0.0089392
25.26 -0.0074187
25.27 -0.00595567
25.28 -0.00459571
25.29 -0.00337971
25.3 -0.00234264
25.31 -0.00151271
25.32 -0.00091473
25.33 -0.00057677
25.34 -0.000484091
25.35 -0.000632257
25.36 -0.00100973
25.37 -0.00159862
25.38 -0.00237554
25.39 -0.00331274
25.4 -0.00437922
25.41 -0.00554537
25.42 -0.0067716
25.43 -0.00802124
25.44 -0.00926288
25.45 -0.0104678
25.46 -0.0116108
25.47 -0.0126707
25.48 -0.0136309
25.49 -0.0144793
25.5 -0.0151976
25.51 -0.0157947
25.52 -0.0162732
25.53 -0.0166392
25.54 -0.0169017
25.55 -0.0170722
25.56 -0.0171633
25.57 -0.0171888
25.58 -0.0171608
25.59 -0.0170934
25.6 -0.0170008
25.61 -0.0168929
25.62 -0.0167777
25.63 -0.0166608
25.64 -0.0165457
25.65 -0.0164341
25.66 -0.0163256
25.67 -0.0162183
25.68 -0.0161092
25.69 -0.0159947
25.7 -0.0158717
25.71 -0.0157377
25.72 -0.015591
25.73 -0.0154317
25.74 -0.0152615
25.75 -0.0150839
25.76 -0.0149056
25.77 -0.0147352
25.78 -0.0145825
25.79 -0.0144587
25.8 -0.0143759
25.81 -0.0143466
25.82 -0.0143829
25.83 -0.014496
25.84 -0.0147015
25.85 -0.0150042
25.86 -0.0154049
25.87 -0.015904
25.88 -0.0164976
25.89 -0.0171781
25.9 -0.0179336
25.91 -0.0187484
25.92 -0.0196032
25.93 -0.0204741
25.94 -0.0213325
25.95 -0.0221511
25.96 -0.0229024
25.97 -0.0235589
25.98 -0.0240948
25.99 -0.0244868
26 -0.0247149
26.01 -0.0247544
26.02 -0.024595
26.03 -0.0242419
26.04 -0.0236986
26.05 -0.0229747
26.06 -0.0220867
26.07 -0.0210568
26.08 -0.0199132
26.09 -0.0186887
26.1 -0.0174198
26.11 -0.0161532
26.12 -0.0149302
26.13 -0.0137918
26.14 -0.0127772
26.15 -0.0119225
26.16 -0.0112595
26.17 -0.0108144
26.18 -0.0106154
26.19 -0.0106818
26.2 -0.0110014
26.21 -0.0115679
26.22 -0.012367
26.23 -0.0133762
26.24 -0.0145657
26.25 -0.0158996
26.26 -0.0173362
26.27 -0.0188307
26.28 -0.0203273
26.29 -0.0217763
26.3 -0.0231303
26.31 -0.0243451
26.32 -0.0253806
26.33 -0.026203
26.34 -0.0267856
26.35 -0.0271047
26.36 -0.0271352
26.37 -0.0268987
26.38 -0.0264065
26.39 -0.025679
26.4 -0.0247449
26.41 -0.0236404
26.42 -0.0224079
26.43 -0.0210946
26.44 -0.0197523
26.45 -0.0184393
26.46 -0.0172076
26.47 -0.0161051
26.48 -0.0151757
26.49 -0.0144569
26.5 -0.0139789
26.51 -0.0137634
26.52 -0.0138235
26.53 -0.0141857
26.54 -0.0148148
26.55 -0.015691
26.56 -0.0167859
26.57 -0.0180629
26.58 -0.0194786
26.59 -0.0209843
26.6 -0.0225278
26.61 -0.0240523
26.62 -0.0254969
26.63 -0.0268119
26.64 -0.0279513
26.65 -0.0288748
26.66 -0.0295499
26.67 -0.0299527
26.68 -0.0300691
26.69 -0.0298948
26.7 -0.0294144
26.71 -0.0286666
26.72 -0.0276832
26.73 -0.0265005
26.74 -0.0251618
26.75 -0.0237159
26.76 -0.0222154
26.77 -0.0207148
26.78 -0.0192711
26.79 -0.0179465
26.8 -0.0167838
26.81 -0.0158238
26.82 -0.0150997
26.83 -0.0146361
26.84 -0.0144476
26.85 -0.0145389
26.86 -0.0149042
26.87 -0.0155429
26.88 -0.0164159
26.89 -0.01748
26.9 -0.0186924
26.91 -0.020005
26.92 -0.0213662
26.93 -0.0227224
26.94 -0.0240208
26.95 -0.0252087
26.96 -0.0262241
26.97 -0.0270377
26.98 -0.0276182
26.99 -0.0279432
27 -0.0280003
27.01 -0.0277869
27.02 -0.027311
27.03 -0.0265905
27.04 -0.0256437
27.05 -0.024513
27.06 -0.0232519
27.07 -0.0219094
27.08 -0.0205374
27.09 -0.0191893
27.1 -0.0179174
27.11 -0.0167712
27.12 -0.0157955
27.13 -0.01505
27.14 -0.0145485
27.15 -0.0143088
27.16 -0.0143396
27.17 -0.0146391
27.18 -0.0151948
27.19 -0.0159842
27.2 -0.0169754
27.21 -0.0181319
27.22 -0.0194035
27.23 -0.0207278
27.24 -0.022049
27.25 -0.0233108
27.26 -0.0244586
27.27 -0.025441
27.28 -0.0262123
27.29 -0.026734
27.3 -0.0269544
27.31 -0.0268684
27.32 -0.0264757
27.33 -0.0257814
27.34 -0.0248023
27.35 -0.0235657
27.36 -0.0221091
27.37 -0.0204788
27.38 -0.0187274
27.39 -0.0169171
27.4 -0.0151194
27.41 -0.0133979
27.42 -0.0118147
27.43 -0.0104283
27.44 -0.00929126
27.45 -0.00844859
27.46 -0.00793607
27.47 -0.00780042
27.48 -0.00804727
27.49 -0.00866233
27.5 -0.00963209
27.51 -0.0109312
27.52 -0.0125235
27.53 -0.0143629
27.54 -0.0163949
27.55 -0.018559
27.56 -0.0207889
27.57 -0.023006
27.58 -0.0251427
27.59 -0.0271347
27.6 -0.0289224
27.61 -0.0304528
27.62 -0.0316819
27.63 -0.0325753
27.64 -0.0330939
27.65 -0.0332228
27.66 -0.0329841
27.67 -0.0323925
27.68 -0.0314741
27.69 -0.030265
27.7 -0.0288098
27.71 -0.0271605
27.72 -0.0253741
27.73 -0.0235097
27.74 -0.0216395
27.75 -0.0198242
27.76 -0.0181201
27.77 -0.016578
27.78 -0.0152417
27.79 -0.0141467
27.8 -0.013319
27.81 -0.0127825
27.82 -0.0125537
27.83 -0.0126061
27.84 -0.0129226
27.85 -0.0134774
27.86 -0.014237
27.87 -0.0151613
27.88 -0.0162059
27.89 -0.0173233
27.9 -0.0184632
27.91 -0.0195722
27.92 -0.0206054
27.93 -0.021523
27.94 -0.0222912
27.95 -0.0228833
27.96 -0.0232803
27.97 -0.0234718
27.98 -0.0234535
27.99 -0.0232192
28 -0.0228023
28.01 -0.0222258
28.02 -0.0215185
28.03 -0.0207136
28.04 -0.0198473
28.05 -0.0189568
28.06 -0.0180794
28.07 -0.0172545
28.08 -0.0165171
28.09 -0.0158909
28.1 -0.0153958
28.11 -0.0150448
28.12 -0.0148436
28.13 -0.0147903
28.14 -0.0148759
28.15 -0.0150841
28.16 -0.015399
28.17 -0.0157812
28.18 -0.0161981
28.19 -0.016615
28.2 -0.0169966
28.21 -0.0173088
28.22 -0.0175194
28.23 -0.0176008
28.24 -0.0175241
28.25 -0.0172682
28.26 -0.0168351
28.27 -0.0162258
28.28 -0.0154495
28.29 -0.0145233
28.3 -0.0134723
28.31 -0.0123281
28.32 -0.0111283
28.33 -0.00991741
28.34 -0.00874579
28.35 -0.00765992
28.36 -0.00670509
28.37 -0.00592388
28.38 -0.00535437
28.39 -0.00502861
28.4 -0.0049712
28.41 -0.00520392
28.42 -0.00574871
28.43 -0.00657824
28.44 -0.00767629
28.45 -0.00901674
28.46 -0.0105642
28.47 -0.0122749
28.48 -0.0140983
28.49 -0.0159781
28.5 -0.0178506
28.51 -0.0196475
28.52 -0.0213085
28.53 -0.0227761
28.54 -0.0239977
28.55 -0.0249278
28.56 -0.0255293
28.57 -0.0257748
28.58 -0.0256466
28.59 -0.0251085
28.6 -0.0242046
28.61 -0.0229571
28.62 -0.0213996
28.63 -0.0195758
28.64 -0.0175386
28.65 -0.0153482
28.66 -0.0130704
28.67 -0.0107767
28.68 -0.00854687
28.69 -0.00645007
28.7 -0.00455124
28.71 -0.00290937
28.72 -0.00157559
28.73 -0.000591508
28.74 1.21105e-05
28.75 0.000216395
28.76 -1.82521e-05
28.77 -0.000653583
28.78 -0.0016632
28.79 -0.00301352
28.8 -0.00466032
28.81 -0.00655011
28.82 -0.00862184
28.83 -0.0108088
28.84 -0.01304
28.85 -0.0152348
28.86 -0.0173208
28.87 -0.0192317
28.88 -0.020907
28.89 -0.0222937
28.9 -0.0233478
28.91 -0.0240359
28.92 -0.0243359
28.93 -0.0242108
28.94 -0.0236808
28.95 -0.0227733
28.96 -0.021516
28.97 -0.019947
28.98 -0.0181132
28.99 -0.0160687
29 -0.0138734
29.01 -0.0115905
29.02 -0.00929067
29.03 -0.00704477
29.04 -0.0049148
29.05 -0.00295828
29.06 -0.00122668
29.07 0.000235984
29.08 0.00139423
29.09 0.00222198
29.1 0.00268465
29.11 0.0027802
29.12 0.00252966
29.13 0.00194876
29.14 0.0010619
29.15 -9.88149e-05
29.16 -0.00149474
29.17 -0.00308204
29.18 -0.00481311
29.19 -0.006642
29.2 -0.0085057
29.21 -0.0103544
29.22 -0.0121409
29.23 -0.0138217
29.24 -0.0153578
29.25 -0.0167156
29.26 -0.0178678
29.27 -0.0187845
29.28 -0.0194456
29.29 -0.0198583
29.3 -0.0200232
29.31 -0.0199467
29.32 -0.0196409
29.33 -0.0191223
29.34 -0.0184116
29.35 -0.0175329
29.36 -0.0165035
29.37 -0.0153624
29.38 -0.0141406
29.39 -0.0128664
29.4 -0.0115673
29.41 -0.0102695
29.42 -0.0089971
29.43 -0.00777241
29.44 -0.00661693
29.45 -0.00555395
29.46 -0.00459231
29.47 -0.00374347
29.48 -0.00301641
29.49 -0.00241778
29.5 -0.00195199
29.51 -0.0016214
29.52 -0.00142644
29.53 -0.00137364
29.54 -0.00145583
29.55 -0.00166334
29.56 -0.00198951
29.57 -0.00242611
29.58 -0.00296332
29.59 -0.00358972
29.6 -0.0042923
29.61 -0.00505666
29.62 -0.00586867
29.63 -0.00670505
29.64 -0.00754646
29.65 -0.00837248
29.66 -0.00916187
29.67 -0.00989295
29.68 -0.010544
29.69 -0.0110939
29.7 -0.011516
29.71 -0.0117892
29.72 -0.0119039
29.73 -0.0118476
29.74 -0.0116112
29.75 -0.01119
29.76 -0.0105837
29.77 -0.00979712
29.78 -0.00884009
29.79 -0.00771637
29.8 -0.00646033
29.81 -0.00509977
29.82 -0.00366521
29.83 -0.00219083
29.84 -0.000713644
29.85 0.000727441
29.86 0.00209267
29.87 0.00333802
29.88 0.00441595
29.89 0.00529994
29.9 0.00595977
29.91 0.00637051
29.92 0.00651343
29.93 0.00637685
29.94 0.00595669
29.95 0.00525691
29.96 0.00427266
29.97 0.00303889
29.98 0.00159199
29.99 -3.16686e-05
30 -0.00178985
30.01 -0.00363561
30.02 -0.00551863
30.03 -0.00738669
30.04 -0.00918556
30.05 -0.010851
30.06 -0.0123418
30.07 -0.0136154
30.08 -0.0146358
30.09 -0.0153741
30.1 -0.0158101
30.11 -0.0159328
30.12 -0.0157406
30.13 -0.0152267
30.14 -0.0144157
30.15 -0.0133492
30.16 -0.0120637
30.17 -0.0106026
30.18 -0.00901444
30.19 -0.00735132
30.2 -0.00566729
30.21 -0.00401641
30.22 -0.00246332
30.23 -0.00105187
30.24 0.000176434
30.25 0.00118717
30.26 0.00195431
30.27 0.00246121
30.28 0.00270113
30.29 0.00267757
30.3 0.00239563
30.31 0.00187799
30.32 0.00117262
30.33 0.000320591
30.34 -0.000631299
30.35 -0.00163226
30.36 -0.00262941
30.37 -0.00356976
30.38 -0.00440225
30.39 -0.00506456
30.4 -0.00552171
30.41 -0.00574462
30.42 -0.00571067
30.43 -0.00540745
30.44 -0.00483344
30.45 -0.00399833
30.46 -0.0029228
30.47 -0.00163447
30.48 -0.00017105
30.49 0.00140184
30.5 0.00302724
30.51 0.00464399
30.52 0.0061889
30.53 0.00759896
30.54 0.00881373
30.55 0.00977752
30.56 0.0104206
30.57 0.0107087
30.58 0.0106252
30.59 0.0101558
30.6 0.00929921
30.61 0.00806728
30.62 0.00648537
30.63 0.00459157
30.64 0.00243456
30.65 6.50111e-05
30.66 -0.00242407
30.67 -0.00495611
30.68 -0.0074511
30.69 -0.00982813
30.7 -0.0120081
30.71 -0.0139162
30.72 -0.0154847
30.73 -0.0166346
30.74 -0.0173132
30.75 -0.0175093
30.76 -0.017207
30.77 -0.0164055
30.78 -0.0151196
30.79 -0.0133794
30.8 -0.0112296
30.81 -0.00872796
30.82 -0.00592641
30.83 -0.00293324
30.84 0.000162277
30.85 0.00326988
30.86 0.00629866
30.87 0.00915996
30.88 0.0117702
30.89 0.0140534
30.9 0.0159302
30.91 0.0173275
30.92 0.0182352
30.93 0.0186328
30.94 0.018516
30.95 0.0178967
30.96 0.0168024
30.97 0.0152757
30.98 0.0133723
30.99 0.0111435
31 0.00868892
31.01 0.00610046
31.02 0.00346579
31.03 0.000872902
31.04 -0.00159276
31.05 -0.00385107
31.06 -0.0058298
31.07 -0.00746116
31.08 -0.00866609
31.09 -0.00944001
31.1 -0.00976534
31.11 -0.00963996
31.12 -0.0090771
31.13 -0.00810474
31.14 -0.00676457
31.15 -0.00511037
31.16 -0.00319673
31.17 -0.00110861
31.18 0.00106598
31.19 0.0032468
31.2 0.0053543
31.21 0.00731238
31.22 0.00905089
31.23 0.0105079
31.24 0.011632
31.25 0.0123461
31.26 0.0126589
31.27 0.0125616
31.28 0.0120598
31.29 0.0111726
31.3 0.00993267
31.31 0.00838432
31.32 0.00658228
31.33 0.00458503
31.34 0.00246855
31.35 0.000316267
31.36 -0.00179811
31.37 -0.00380291
31.38 -0.00563094
31.39 -0.00722167
31.4 -0.00852325
31.41 -0.00949418
31.42 -0.0100751
31.43 -0.0102712
31.44 -0.0100874
31.45 -0.00953513
31.46 -0.00863849
31.47 -0.00743277
31.48 -0.00596326
31.49 -0.00428361
31.5 -0.00245197
31.51 -0.000535855
31.52 0.00138827
31.53 0.00325491
31.54 0.00500167
31.55 0.00657133
31.56 0.00791375
31.57 0.00898742
31.58 0.00976075
31.59 0.0101924
31.6 0.0102835
31.61 0.0100494
31.62 0.00950633
31.63 0.0086808
31.64 0.00760882
31.65 0.00633436
31.66 0.00490776
31.67 0.00338371
31.68 0.00182247
31.69 0.000289784
31.7 -0.00115806
31.71 -0.00246847
31.72 -0.00359417
31.73 -0.00449473
31.74 -0.00513771
31.75 -0.00549963
31.76 -0.00555249
31.77 -0.00529264
31.78 -0.00474202
31.79 -0.00391758
31.8 -0.00284466
31.81 -0.00155595
31.82 -9.02499e-05
31.83 0.00150894
31.84 0.00319491
31.85 0.00491846
31.86 0.00662427
31.87 0.00826583
31.88 0.00980019
31.89 0.0111889
31.9 0.0123988
31.91 0.0134033
31.92 0.0141825
31.93 0.0147158
31.94 0.0149901
31.95 0.0150232
31.96 0.0148246
31.97 0.0144092
31.98 0.0137968
31.99 0.0130113
32 0.0120793
32.01 0.0110296
32.02 0.00988754
32.03 0.00868971
32.04 0.00746615
32.05 0.00624295
32.06 0.00504365
32.07 0.00388878
32.08 0.00279561
32.09 0.00177799
32.1 0.000847926
32.11 1.91521e-05
32.12 -0.000711335
32.13 -0.00134194
32.14 -0.00187291
32.15 -0.00230578
32.16 -0.00264291
32.17 -0.00288699
32.18 -0.00304061
32.19 -0.00310117
32.2 -0.00307164
32.21 -0.00295606
32.22 -0.00275424
32.23 -0.0024654
32.24 -0.00208845
32.25 -0.00162233
32.26 -0.00106646
32.27 -0.000421162
32.28 0.000319686
32.29 0.00114342
32.3 0.00204334
32.31 0.00300995
32.32 0.00403072
32.33 0.00509002
32.34 0.00616915
32.35 0.00724659
32.36 0.00829628
32.37 0.00928818
32.38 0.0101967
32.39 0.0109944
32.4 0.0116548
32.41 0.0121532
32.42 0.0124679
32.43 0.0125809
32.44 0.0124792
32.45 0.0121381
32.46 0.0115716
32.47 0.0107911
32.48 0.00981181
32.49 0.00865617
32.5 0.00735369
32.51 0.0059404
32.52 0.00445806
32.53 0.00295386
32.54 0.00148471
32.55 0.00010375
32.56 -0.00113709
32.57 -0.00218767
32.58 -0.00300138
32.59 -0.00353683
32.6 -0.00375943
32.61 -0.00364286
32.62 -0.00314727
32.63 -0.00227871
32.64 -0.00105573
32.65 0.000502806
32.66 0.00236674
32.67 0.00449519
32.68 0.00683741
32.69 0.00933406
32.7 0.0119189
32.71 0.0145141
32.72 0.0170381
32.73 0.0194158
32.74 0.021574
32.75 0.0234442
32.76 0.0249645
32.77 0.0260819
32.78 0.026754
32.79 0.0269272
32.8 0.0265852
32.81 0.0257516
32.82 0.0244421
32.83 0.0226871
32.84 0.0205306
32.85 0.0180294
32.86 0.0152513
32.87 0.0122732
32.88 0.00917679
32.89 0.00606746
32.9 0.00303592
32.91 0.000170276
32.92 -0.00244595
32.93 -0.00473643
32.94 -0.00663446
32.95 -0.00808512
32.96 -0.00903045
32.97 -0.00942755
32.98 -0.00930071
32.99 -0.00865984
33 -0.00753098
33.01 -0.00595557
33.02 -0.0039892
33.03 -0.00169988
33.04 0.000834016
33.05 0.00353088
33.06 0.00628181
33.07 0.00898977
33.08 0.0115626
33.09 0.0139127
33.1 0.0159597
33.11 0.017633
33.12 0.0188742
33.13 0.0196305
33.14 0.0198407
33.15 0.0195339
33.16 0.0187184
33.17 0.0174193
33.18 0.0156772
33.19 0.0135473
33.2 0.0110977
33.21 0.0084066
33.22 0.00555738
33.23 0.00265585
33.24 -0.000198354
33.25 -0.00291264
33.26 -0.00539886
33.27 -0.00757613
33.28 -0.00937337
33.29 -0.0107315
33.3 -0.0116049
33.31 -0.0119148
33.32 -0.0116975
33.33 -0.0109598
33.34 -0.00972503
33.35 -0.00803175
33.36 -0.00593283
33.37 -0.00349355
33.38 -0.000789531
33.39 0.00209931
33.4 0.00507414
33.41 0.00803469
33.42 0.0108911
33.43 0.0135574
33.44 0.0159547
33.45 0.0180129
33.46 0.0196731
33.47 0.0208892
33.48 0.02159
33.49 0.0217908
33.5 0.0215003
33.51 0.0207358
33.52 0.0195282
33.53 0.0179219
33.54 0.0159722
33.55 0.0137442
33.56 0.011307
33.57 0.00874043
33.58 0.00613747
33.59 0.00357635
33.6 0.00113184
33.61 -0.00112703
33.62 -0.00313907
33.63 -0.00485268
33.64 -0.00622729
33.65 -0.00720972
33.66 -0.00779699
33.67 -0.00800042
33.68 -0.00783271
33.69 -0.0073183
33.7 -0.00649231
33.71 -0.00539902
33.72 -0.00409021
33.73 -0.00262233
33.74 -0.00105509
33.75 0.000536765
33.76 0.00209253
33.77 0.00355492
33.78 0.00487188
33.79 0.00599828
33.8 0.00689724
33.81 0.00754121
33.82 0.00789903
33.83 0.00796502
33.84 0.00775747
33.85 0.00729208
33.86 0.0065937
33.87 0.0056952
33.88 0.00463628
33.89 0.00346186
33.9 0.00222048
33.91 0.00096555
33.92 -0.000247054
33.93 -0.00136915
33.94 -0.00235635
33.95 -0.00316941
33.96 -0.00377545
33.97 -0.004149
33.98 -0.00427268
33.99 -0.00412907
34 -0.00371189
34.01 -0.00304747
34.02 -0.00215426
34.03 -0.00105793
34.04 0.000209564
34.05 0.00161111
34.06 0.00310575
34.07 0.00464999
34.08 0.00619637
34.09 0.00769616
34.1 0.00910747
34.11 0.0103917
34.12 0.0115145
34.13 0.0124471
34.14 0.0131663
34.15 0.0136558
34.16 0.0139017
34.17 0.0138872
34.18 0.0136366
34.19 0.0131615
34.2 0.0124795
34.21 0.0116131
34.22 0.010589
34.23 0.00943697
34.24 0.00818925
34.25 0.00687767
34.26 0.00554108
34.27 0.00421441
34.28 0.00292871
34.29 0.00171259
34.3 0.000591592
34.31 -0.000412267
34.32 -0.00128087
34.33 -0.00199986
34.34 -0.00254452
34.35 -0.00292415
34.36 -0.003138
34.37 -0.00318898
34.38 -0.00308335
34.39 -0.00283028
34.4 -0.00244147
34.41 -0.00193066
34.42 -0.00130949
34.43 -0.00059565
34.44 0.000187896
34.45 0.00102339
34.46 0.00189306
34.47 0.00277937
34.48 0.00366523
34.49 0.00453415
34.5 0.00537041
34.51 0.0061541
34.52 0.00687335
34.53 0.00751608
34.54 0.00807065
34.55 0.00852658
34.56 0.00887462
34.57 0.0091069
34.58 0.00921705
34.59 0.00919698
34.6 0.00903822
34.61 0.00874917
34.62 0.00833176
34.63 0.00779038
34.64 0.00713203
34.65 0.00636641
34.66 0.00550602
34.67 0.00456615
34.68 0.00356217
34.69 0.00251947
34.7 0.00146313
34.71 0.000418327
34.72 -0.000588394
34.73 -0.0015297
34.74 -0.0023781
34.75 -0.00310667
34.76 -0.00368805
34.77 -0.00408422
34.78 -0.004288
34.79 -0.00428353
34.8 -0.00405955
34.81 -0.00360996
34.82 -0.0029344
34.83 -0.00203852
34.84 -0.000934256
34.85 0.000368375
34.86 0.00184014
34.87 0.00344121
34.88 0.0051351
34.89 0.00688102
34.9 0.00863486
34.91 0.0103503
34.92 0.0119798
34.93 0.0134764
34.94 0.0147746
34.95 0.0158442
34.96 0.016649
34.97 0.0171578
34.98 0.0173466
34.99 0.0171991
35 0.0167074
35.01 0.0158732
35.02 0.0146965
35.03 0.013193
35.04 0.0114138
35.05 0.0093985
35.06 0.00719406
35.07 0.00485369
35.08 0.0024355
35.09 1.00518e-06
35.1 -0.00238657
35.11 -0.00465125
35.12 -0.00673181
35.13 -0.00857396
35.14 -0.0101266
35.15 -0.011346
35.16 -0.0121966
35.17 -0.0126528
35.18 -0.0126992
35.19 -0.012324
35.2 -0.0115129
35.21 -0.0103179
35.22 -0.00877039
35.23 -0.00691134
35.24 -0.00479046
35.25 -0.0024647
35.26 3.23537e-06
35.27 0.00254669
35.28 0.00509317
35.29 0.00756581
35.3 0.00989841
35.31 0.0120289
35.32 0.0139014
35.33 0.0154673
35.34 0.0166872
35.35 0.0175317
35.36 0.0179809
35.37 0.0179928
35.38 0.0176105
35.39 0.0168523
35.4 0.0157473
35.41 0.014334
35.42 0.0126595
35.43 0.010778
35.44 0.00874914
35.45 0.00663545
35.46 0.00450987
35.47 0.00244069
35.48 0.000489575
35.49 -0.00128626
35.5 -0.00283574
35.51 -0.00411544
35.52 -0.00509075
35.53 -0.00573692
35.54 -0.00601127
35.55 -0.00593579
35.56 -0.00552489
35.57 -0.00479914
35.58 -0.00378889
35.59 -0.0025333
35.6 -0.00107911
35.61 0.000520822
35.62 0.00220977
35.63 0.00392178
35.64 0.0055905
35.65 0.00715635
35.66 0.00856296
35.67 0.00975881
35.68 0.0106988
35.69 0.0113455
35.7 0.0116704
35.71 0.0116314
35.72 0.0112337
35.73 0.0104914
35.74 0.00941937
35.75 0.00804256
35.76 0.00639528
35.77 0.0045202
35.78 0.00246721
35.79 0.000291359
35.8 -0.00194536
35.81 -0.00417057
35.82 -0.00632085
35.83 -0.00833405
35.84 -0.010151
35.85 -0.0117172
35.86 -0.0129841
35.87 -0.0139105
35.88 -0.0144436
35.89 -0.0145612
35.9 -0.0142689
35.91 -0.0135663
35.92 -0.0124634
35.93 -0.0109805
35.94 -0.00914746
35.95 -0.00700314
35.96 -0.00459441
35.97 -0.00196126
35.98 0.000813431
35.99 0.00366501
36 0.00652767
36.01 0.0093352
36.02 0.0120226
36.03 0.0145277
36.04 0.0167926
36.05 0.018753
36.06 0.020351
36.07 0.0215693
36.08 0.0223815
36.09 0.0227713
36.1 0.0227321
36.11 0.0222675
36.12 0.0213913
36.13 0.0201267
36.14 0.0184825
36.15 0.0165241
36.16 0.014308
36.17 0.0118892
36.18 0.00932738
36.19 0.00668517
36.2 0.00402667
36.21 0.00141604
36.22 -0.00108067
36.23 -0.00338847
36.24 -0.00546234
36.25 -0.00725432
36.26 -0.00872352
36.27 -0.0098371
36.28 -0.010571
36.29 -0.0109104
36.3 -0.0108502
36.31 -0.0103723
36.32 -0.00950299
36.33 -0.00828148
36.34 -0.00674123
36.35 -0.00492313
36.36 -0.00287449
36.37 -0.000647814
36.38 0.00170053
36.39 0.00411166
36.4 0.00652022
36.41 0.00886241
36.42 0.0110816
36.43 0.0131249
36.44 0.0149444
36.45 0.0164985
36.46 0.0177528
36.47 0.0186807
36.48 0.019249
36.49 0.0194463
36.5 0.0192927
36.51 0.0187997
36.52 0.017987
36.53 0.0168827
36.54 0.0155218
36.55 0.0139455
36.56 0.0121998
36.57 0.010329
36.58 0.00839859
36.59 0.0064627
36.6 0.00457322
36.61 0.00277963
36.62 0.00112775
36.63 -0.000341505
36.64 -0.00159316
36.65 -0.00259156
36.66 -0.00330441
36.67 -0.00373758
36.68 -0.00388856
36.69 -0.00376298
36.7 -0.00337429
36.71 -0.00274323
36.72 -0.00189711
36.73 -0.000868905
36.74 0.000310778
36.75 0.00159047
36.76 0.00292309
36.77 0.00426494
36.78 0.00557321
36.79 0.00680724
36.8 0.00792973
36.81 0.00890777
36.82 0.00971134
36.83 0.0103039
36.84 0.0106866
36.85 0.0108531
36.86 0.0108041
36.87 0.0105471
36.88 0.010096
36.89 0.00947063
36.9 0.00869587
36.91 0.00779633
36.92 0.00680972
36.93 0.00577568
36.94 0.00472947
36.95 0.00370581
36.96 0.00273781
36.97 0.00185591
36.98 0.00108699
36.99 0.000453554
37 -1.1757e-05
37.01 -0.000310299
37.02 -0.000437492
37.03 -0.000393975
37.04 -0.000185908
37.05 0.000175387
37.06 0.000673961
37.07 0.0012899
37.08 0.00200254
37.09 0.00278474
37.1 0.00360422
37.11 0.00443384
37.12 0.00524715
37.13 0.00601929
37.14 0.00672777
37.15 0.00735307
37.16 0.00787925
37.17 0.00828528
37.18 0.00856953
37.19 0.00873151
37.2 0.0087727
37.21 0.00869839
37.22 0.00851731
37.23 0.00824105
37.24 0.00788351
37.25 0.00745924
37.26 0.00698391
37.27 0.00647883
37.28 0.00596004
37.29 0.00544236
37.3 0.0049389
37.31 0.00446063
37.32 0.00401611
37.33 0.00361132
37.34 0.00325223
37.35 0.00293832
37.36 0.0026661
37.37 0.00243172
37.38 0.00222985
37.39 0.00205426
37.4 0.00189828
37.41 0.00175537
37.42 0.00161968
37.43 0.0014864
37.44 0.00135225
37.45 0.00121648
37.46 0.00108047
37.47 0.000947833
37.48 0.000824276
37.49 0.00071745
37.5 0.000636596
37.51 0.00059424
37.52 0.000603046
37.53 0.000672002
37.54 0.00081112
37.55 0.00102888
37.56 0.00133155
37.57 0.00172261
37.58 0.00220224
37.59 0.00276687
37.6 0.00341449
37.61 0.00412604
37.62 0.00488413
37.63 0.00566849
37.64 0.00645561
37.65 0.00721945
37.66 0.0079322
37.67 0.0085652
37.68 0.00908597
37.69 0.00945952
37.7 0.00966913
37.71 0.00969455
37.72 0.00952025
37.73 0.00913644
37.74 0.00853968
37.75 0.0077335
37.76 0.00672872
37.77 0.0055329
37.78 0.00418273
37.79 0.00271637
37.8 0.00117309
37.81 -0.000403106
37.82 -0.00196469
37.83 -0.00346207
37.84 -0.00484513
37.85 -0.00606198
37.86 -0.0070479
37.87 -0.00777633
37.88 -0.00821331
37.89 -0.00833268
37.9 -0.00811728
37.91 -0.00755988
37.92 -0.00666375
37.93 -0.00544299
37.94 -0.00390852
37.95 -0.00210455
37.96 -9.02205e-05
37.97 0.00207965
37.98 0.00434373
37.99 0.00663595
38 0.0088875
38.01 0.011029
38.02 0.0129926
38.03 0.0146867
38.04 0.016072
38.05 0.0171013
38.06 0.0177374
38.07 0.0179549
38.08 0.0177412
38.09 0.0170969
38.1 0.0160369
38.11 0.0145765
38.12 0.0127567
38.13 0.0106551
38.14 0.00833728
38.15 0.00587703
38.16 0.00335366
38.17 0.0008498
38.18 -0.00155134
38.19 -0.00376862
38.2 -0.00570034
38.21 -0.00728775
38.22 -0.00847914
38.23 -0.00923047
38.24 -0.00951167
38.25 -0.00930792
38.26 -0.00862031
38.27 -0.00746608
38.28 -0.00587004
38.29 -0.00386741
38.3 -0.00155404
38.31 0.000994117
38.32 0.00369221
38.33 0.00644912
38.34 0.00917037
38.35 0.0117612
38.36 0.0141296
38.37 0.0161657
38.38 0.0177936
38.39 0.0189612
38.4 0.01962
38.41 0.0197379
38.42 0.0192998
38.43 0.0183089
38.44 0.0167867
38.45 0.0147696
38.46 0.0122847
38.47 0.00944934
38.48 0.00635032
38.49 0.00308423
38.5 -0.000245568
38.51 -0.00353215
38.52 -0.00666842
38.53 -0.00955052
38.54 -0.012061
38.55 -0.0141012
38.56 -0.0156176
38.57 -0.0165546
38.58 -0.016874
38.59 -0.0165568
38.6 -0.0156036
38.61 -0.0140348
38.62 -0.0118901
38.63 -0.00918963
38.64 -0.00605603
38.65 -0.00258563
38.66 0.00111928
38.67 0.00494881
38.68 0.00878886
38.69 0.0125247
38.7 0.0160442
38.71 0.0192293
38.72 0.0219598
38.73 0.0241775
38.74 0.0258181
38.75 0.0268353
38.76 0.0272015
38.77 0.0269091
38.78 0.0259705
38.79 0.0244176
38.8 0.0222663
38.81 0.0196179
38.82 0.0165711
38.83 0.0132216
38.84 0.00967324
38.85 0.0060348
38.86 0.00241631
38.87 -0.00107413
38.88 -0.00432896
38.89 -0.00722383
38.9 -0.00969859
38.91 -0.0116876
38.92 -0.0131412
38.93 -0.0140272
38.94 -0.0143316
38.95 -0.0140582
38.96 -0.013229
38.97 -0.0118575
38.98 -0.0100127
38.99 -0.0077849
39 -0.00525383
39.01 -0.00250637
39.02 0.000366176
39.03 0.00327118
39.04 0.00611767
39.05 0.00881921
39.06 0.0112692
39.07 0.0134151
39.08 0.0152025
39.09 0.0165902
39.1 0.0175514
39.11 0.0180745
39.12 0.0181628
39.13 0.0178338
39.14 0.0171057
39.15 0.0160217
39.16 0.0146584
39.17 0.0130783
39.18 0.0113487
39.19 0.00953975
39.2 0.00772123
39.21 0.00596068
39.22 0.00432091
39.23 0.00287543
39.24 0.00166391
39.25 0.000718237
39.26 6.21783e-05
39.27 -0.000292131
39.28 -0.000344243
39.29 -0.000105018
39.3 0.000404142
39.31 0.00115691
39.32 0.00211932
39.33 0.00322836
39.34 0.00443397
39.35 0.00568426
39.36 0.00692754
39.37 0.00811425
39.38 0.00919875
39.39 0.010141
39.4 0.0108954
39.41 0.0114406
39.42 0.0117681
39.43 0.011873
39.44 0.0117594
39.45 0.0114399
39.46 0.0109352
39.47 0.0102725
39.48 0.00948432
39.49 0.00860438
39.5 0.00768281
39.51 0.00675959
39.52 0.00587328
39.53 0.00505951
39.54 0.00434954
39.55 0.00376906
39.56 0.00333718
39.57 0.00307345
39.58 0.00298185
39.59 0.00304938
39.6 0.00326349
39.61 0.00360498
39.62 0.00404891
39.63 0.00456574
39.64 0.00512269
39.65 0.00568514
39.66 0.00621279
39.67 0.00667182
39.68 0.00703262
39.69 0.00726981
39.7 0.00736363
39.71 0.00730086
39.72 0.0070755
39.73 0.00668913
39.74 0.00614677
39.75 0.00546335
39.76 0.00467325
39.77 0.00380698
39.78 0.00289958
39.79 0.00198921
39.8 0.0011157
39.81 0.000318957
39.82 -0.000362658
39.83 -0.000881107
39.84 -0.00121049
39.85 -0.00133149
39.86 -0.00122842
39.87 -0.000893716
39.88 -0.000328417
39.89 0.00045763
39.9 0.00144594
39.91 0.00261197
39.92 0.00392641
39.93 0.00533404
39.94 0.0067886
39.95 0.00824077
39.96 0.00963995
39.97 0.0109359
39.98 0.0120808
39.99 0.0130305
40 0.0137321
40.01 0.0141549
40.02 0.0142874
40.03 0.0141178
40.04 0.0136442
40.05 0.0128748
40.06 0.0118278
40.07 0.0105306
40.08 0.0090194
40.09 0.00732637
40.1 0.00552201
40.11 0.00366131
40.12 0.00180145
40.13 -2.08723e-09
40.14 -0.00168696
40.15 -0.00320667
40.16 -0.00451147
40.17 -0.00554884
40.18 -0.00627817
40.19 -0.0066921
40.2 -0.00677881
40.21 -0.00653678
40.22 -0.00597475
40.23 -0.00511143
40.24 -0.00397481
40.25 -0.00260124
40.26 -0.00102281
40.27 0.000693882
40.28 0.00249215
40.29 0.00431651
40.3 0.00611145
40.31 0.00782324
40.32 0.0094016
40.33 0.0108012
40.34 0.0119772
40.35 0.0128838
40.36 0.0135156
40.37 0.0138607
40.38 0.0139161
40.39 0.0136877
40.4 0.0131902
40.41 0.012446
40.42 0.0114845
40.43 0.0103318
40.44 0.0090383
40.45 0.00765242
40.46 0.00621828
40.47 0.00477959
40.48 0.0033783
40.49 0.00205325
40.5 0.000839062
40.51 -0.000233463
40.52 -0.00112631
40.53 -0.00183649
40.54 -0.00235521
40.55 -0.0026803
40.56 -0.00281591
40.57 -0.00277197
40.58 -0.00256353
40.59 -0.00220983
40.6 -0.00172874
40.61 -0.00114835
40.62 -0.000500094
40.63 0.000190509
40.64 0.000899202
40.65 0.00160388
40.66 0.00228535
40.67 0.00292788
40.68 0.00351964
40.69 0.0040475
40.7 0.00451284
40.71 0.0049173
40.72 0.00526549
40.73 0.00556498
40.74 0.00582552
40.75 0.00605839
40.76 0.00627552
40.77 0.00648897
40.78 0.00671093
40.79 0.00695027
40.8 0.00721327
40.81 0.00750334
40.82 0.00782063
40.83 0.00816198
40.84 0.00852087
40.85 0.00888767
40.86 0.00924856
40.87 0.00958737
40.88 0.00988777
40.89 0.0101326
40.9 0.0103051
40.91 0.0103893
40.92 0.0103714
40.93 0.01024
40.94 0.00998526
40.95 0.00959545
40.96 0.00908166
40.97 0.00845003
40.98 0.00771138
40.99 0.00688099
41 0.00597823
41.01 0.00502604
41.02 0.00405018
41.03 0.00308027
41.04 0.00214842
41.05 0.00128284
41.06 0.000510631
41.07 -0.00014356
41.08 -0.000658501
41.09 -0.00101727
41.1 -0.00120798
41.11 -0.00122422
41.12 -0.00105009
41.13 -0.000709325
41.14 -0.000215312
41.15 0.000412908
41.16 0.0011512
41.17 0.00197109
41.18 0.00284075
41.19 0.00372604
41.2 0.00458942
41.21 0.00539085
41.22 0.00609853
41.23 0.0066823
41.24 0.0071161
41.25 0.00737894
41.26 0.00745576
41.27 0.00733799
41.28 0.00702397
41.29 0.00650487
41.3 0.00580765
41.31 0.0049555
41.32 0.00397453
41.33 0.00289576
41.34 0.00175402
41.35 0.000586744
41.36 -0.000567323
41.37 -0.00166724
41.38 -0.00266792
41.39 -0.00353981
41.4 -0.00425368
41.41 -0.00478571
41.42 -0.00511832
41.43 -0.00524081
41.44 -0.00514979
41.45 -0.00484929
41.46 -0.00433914
41.47 -0.00364725
41.48 -0.00280542
41.49 -0.0018446
41.5 -0.000799729
41.51 0.000291505
41.52 0.00139004
41.53 0.00245684
41.54 0.00345331
41.55 0.00433357
41.56 0.00507444
41.57 0.00565168
41.58 0.00604732
41.59 0.00625027
41.6 0.00625667
41.61 0.00607
41.62 0.00570091
41.63 0.00515994
41.64 0.00447468
41.65 0.00368216
41.66 0.0028157
41.67 0.001911
41.68 0.00100484
41.69 0.000133672
41.7 -0.000667791
41.71 -0.00136786
41.72 -0.0019258
41.73 -0.00232913
41.74 -0.00256429
41.75 -0.00262376
41.76 -0.00250714
41.77 -0.00222121
41.78 -0.00177965
41.79 -0.00120252
41.8 -0.00051294
41.81 0.000256975
41.82 0.00106624
41.83 0.00187856
41.84 0.00265716
41.85 0.0033662
41.86 0.00397215
41.87 0.00444506
41.88 0.00475971
41.89 0.00488274
41.9 0.00480988
41.91 0.00454082
41.92 0.0040786
41.93 0.00343344
41.94 0.00262247
41.95 0.00166903
41.96 0.000601938
41.97 -0.000546346
41.98 -0.00173796
41.99 -0.00292865
42 -0.00407983
42.01 -0.00515421
42.02 -0.00611713
42.03 -0.00693781
42.04 -0.00759042
42.05 -0.008055
42.06 -0.00830635
42.07 -0.00834223
42.08 -0.0081728
42.09 -0.00780762
42.1 -0.00726285
42.11 -0.00656058
42.12 -0.00572798
42.13 -0.00479622
42.14 -0.0037992
42.15 -0.00277312
42.16 -0.00175889
42.17 -0.000790365
42.18 0.000101396
42.19 0.000889294
42.2 0.00155115
42.21 0.00207046
42.22 0.00243699
42.23 0.00264068
42.24 0.00268379
42.25 0.00258534
42.26 0.00236174
42.27 0.00203436
42.28 0.00162857
42.29 0.00117263
42.3 0.000696498
42.31 0.000230538
42.32 -0.000190346
42.33 -0.000539499
42.34 -0.000794515
42.35 -0.000937004
42.36 -0.000953969
42.37 -0.000838379
42.38 -0.000589502
42.39 -0.00021298
42.4 0.000281849
42.41 0.00087904
42.42 0.00154705
42.43 0.00225826
42.44 0.00298229
42.45 0.00368722
42.46 0.00434089
42.47 0.00491225
42.48 0.0053727
42.49 0.00568704
42.5 0.00583857
42.51 0.00581833
42.52 0.00561984
42.53 0.00524353
42.54 0.0046969
42.55 0.00399436
42.56 0.00315675
42.57 0.00220997
42.58 0.00118339
42.59 0.000121674
42.6 -0.000937276
42.61 -0.00195494
42.62 -0.00289369
42.63 -0.00371823
42.64 -0.00439704
42.65 -0.0049036
42.66 -0.0052073
42.67 -0.0052951
42.68 -0.00517202
42.69 -0.00484241
42.7 -0.00431867
42.71 -0.00362092
42.72 -0.00277636
42.73 -0.00181837
42.74 -0.000785389
42.75 0.000279444
42.76 0.00132529
42.77 0.00230738
42.78 0.00318272
42.79 0.00391149
42.8 0.00445861
42.81 0.00479512
42.82 0.00489932
42.83 0.00474918
42.84 0.00433397
42.85 0.00367531
42.86 0.00278891
42.87 0.00169905
42.88 0.000437891
42.89 -0.000955657
42.9 -0.0024372
42.91 -0.0039584
42.92 -0.00546401
42.93 -0.00689861
42.94 -0.00821348
42.95 -0.00936316
42.96 -0.0103075
42.97 -0.0110129
42.98 -0.0114539
42.99 -0.0116138
43 -0.0114803
43.01 -0.0110411
43.02 -0.010333
43.03 -0.00938016
43.04 -0.00821498
43.05 -0.00687722
43.06 -0.00541246
43.07 -0.00387052
43.08 -0.00230367
43.09 -0.000769515
43.1 0.000675351
43.11 0.00198484
43.12 0.00311695
43.13 0.00403648
43.14 0.00471632
43.15 0.00513836
43.16 0.0052941
43.17 0.00518424
43.18 0.00479948
43.19 0.00418665
43.2 0.00337664
43.21 0.00240736
43.22 0.00132226
43.23 0.00016869
43.24 -0.00100395
43.25 -0.00214606
43.26 -0.00320453
43.27 -0.00412897
43.28 -0.00488636
43.29 -0.00544641
43.3 -0.00578718
43.31 -0.00589588
43.32 -0.0057694
43.33 -0.00541445
43.34 -0.00484732
43.35 -0.00408074
43.36 -0.00316507
43.37 -0.00214399
43.38 -0.00106359
43.39 2.70798e-05
43.4 0.00107791
43.41 0.00203972
43.42 0.00286615
43.43 0.00350984
43.44 0.00392374
43.45 0.00409496
43.46 0.00400748
43.47 0.00365531
43.48 0.00304283
43.49 0.00218478
43.5 0.0011058
43.51 -0.000160293
43.52 -0.00157806
43.53 -0.00308772
43.54 -0.00463143
43.55 -0.006153
43.56 -0.007596
43.57 -0.00890586
43.58 -0.0100319
43.59 -0.0109293
43.6 -0.0115573
43.61 -0.0118647
43.62 -0.0118585
43.63 -0.0115342
43.64 -0.0108987
43.65 -0.00996999
43.66 -0.00877679
43.67 -0.00735741
43.68 -0.00575856
43.69 -0.00403032
43.7 -0.00223946
43.71 -0.000452398
43.72 0.00126979
43.73 0.00286833
43.74 0.00428895
43.75 0.00548379
43.76 0.00641324
43.77 0.00704739
43.78 0.00733811
43.79 0.0073062
43.8 0.00696016
43.81 0.00631868
43.82 0.00541135
43.83 0.00427748
43.84 0.00296472
43.85 0.00152718
43.86 2.33657e-05
43.87 -0.00147878
43.88 -0.00291562
43.89 -0.00423002
43.9 -0.00537018
43.91 -0.00629165
43.92 -0.00695905
43.93 -0.00734755
43.94 -0.0074439
43.95 -0.00722605
43.96 -0.0067243
43.97 -0.00597055
43.98 -0.00500178
43.99 -0.00386458
44 -0.0026134
44.01 -0.00130851
44.02 -1.37359e-05
44.03 0.00120324
44.04 0.00226487
44.05 0.00311947
44.06 0.00371604
44.07 0.00401276
44.08 0.00397881
44.09 0.00359582
44.1 0.00285885
44.11 0.00177695
44.12 0.000356396
44.13 -0.00135273
44.14 -0.00328744
44.15 -0.00538561
44.16 -0.00757673
44.17 -0.00978425
44.18 -0.0119283
44.19 -0.0139282
44.2 -0.0157049
44.21 -0.0171534
44.22 -0.0182324
44.23 -0.0188903
44.24 -0.019089
44.25 -0.0188049
44.26 -0.0180305
44.27 -0.0167751
44.28 -0.0150643
44.29 -0.0129248
44.3 -0.0104199
44.31 -0.00764348
44.32 -0.00467948
44.33 -0.00161963
44.34 0.0014393
44.35 0.00439871
44.36 0.00716143
44.37 0.00963498
44.38 0.0116976
44.39 0.0132974
44.4 0.0143821
44.41 0.0149109
44.42 0.0148604
44.43 0.014226
44.44 0.0130216
44.45 0.0112797
44.46 0.0090389
44.47 0.0063582
44.48 0.00335273
44.49 0.000116334
44.5 -0.00324948
44.51 -0.00663882
44.52 -0.00994484
44.53 -0.0130632
44.54 -0.0158956
44.55 -0.0183222
44.56 -0.020275
44.57 -0.0217059
44.58 -0.0225734
44.59 -0.0228546
44.6 -0.0225458
44.61 -0.0216623
44.62 -0.0202382
44.63 -0.0183199
44.64 -0.0159533
44.65 -0.0132614
44.66 -0.0103373
44.67 -0.00728101
44.68 -0.00419573
44.69 -0.00118467
44.7 0.00165248
44.71 0.00422281
44.72 0.00642135
44.73 0.00817382
44.74 0.00944366
44.75 0.0101958
44.76 0.0104128
44.77 0.0100957
44.78 0.00926335
44.79 0.0079517
44.8 0.00621246
44.81 0.00408512
44.82 0.00168607
44.83 -0.000896606
44.84 -0.00357128
44.85 -0.00624482
44.86 -0.00882572
44.87 -0.0112273
44.88 -0.0133704
44.89 -0.0151725
44.9 -0.0165637
44.91 -0.0175253
44.92 -0.0180347
44.93 -0.0180855
44.94 -0.0176878
44.95 -0.0168667
44.96 -0.0156623
44.97 -0.0141269
44.98 -0.0123094
44.99 -0.0103042
45 -0.00819429
45.01 -0.0060595
45.02 -0.00397879
45.03 -0.00202736
45.04 -0.000274075
45.05 0.00122094
45.06 0.00240115
45.07 0.00320852
45.08 0.00364605
45.09 0.00370763
45.1 0.00340122
45.11 0.00274832
45.12 0.00178292
45.13 0.00055002
45.14 -0.000896245
45.15 -0.00249981
45.16 -0.00418324
45.17 -0.0058738
45.18 -0.00750504
45.19 -0.00901417
45.2 -0.0103444
45.21 -0.0114471
45.22 -0.0122833
45.23 -0.0128236
45.24 -0.0130254
45.25 -0.012915
45.26 -0.0125041
45.27 -0.0118162
45.28 -0.010885
45.29 -0.00975353
45.3 -0.00847206
45.31 -0.00709608
45.32 -0.00568534
45.33 -0.00430659
45.34 -0.00301817
45.35 -0.00187256
45.36 -0.000915857
45.37 -0.000186025
45.38 0.000288479
45.39 0.000489735
45.4 0.000410964
45.41 3.49327e-05
45.42 -0.00059953
45.43 -0.00146131
45.44 -0.00251334
45.45 -0.00371125
45.46 -0.00500512
45.47 -0.00634149
45.48 -0.00766553
45.49 -0.00891971
45.5 -0.0100433
45.51 -0.0109964
45.52 -0.0117416
45.53 -0.0122502
45.54 -0.0125029
45.55 -0.0124914
45.56 -0.0122177
45.57 -0.0116948
45.58 -0.0109326
45.59 -0.00997728
45.6 -0.00887666
45.61 -0.00767829
45.62 -0.00643371
45.63 -0.0051963
45.64 -0.00401924
45.65 -0.00295331
45.66 -0.00204753
45.67 -0.0013588
45.68 -0.000903814
45.69 -0.000703144
45.7 -0.000766995
45.71 -0.00109477
45.72 -0.00167502
45.73 -0.00248588
45.74 -0.00349585
45.75 -0.00467077
45.76 -0.00595552
45.77 -0.00729081
45.78 -0.00862129
45.79 -0.00989128
45.8 -0.0110469
45.81 -0.0120385
45.82 -0.0128221
45.83 -0.0133618
45.84 -0.0136045
45.85 -0.013559
45.86 -0.0132238
45.87 -0.0126086
45.88 -0.0117342
45.89 -0.0106326
45.9 -0.00934508
45.91 -0.00792146
45.92 -0.0064174
45.93 -0.00490085
45.94 -0.00343898
45.95 -0.00209402
45.96 -0.000925071
45.97 1.41301e-05
45.98 0.000677327
45.99 0.00102755
46 0.00103866
46.01 0.000669262
46.02 -5.95981e-05
46.03 -0.00112715
46.04 -0.00250644
46.05 -0.0041588
46.06 -0.00603508
46.07 -0.00807724
46.08 -0.0102203
46.09 -0.0123937
46.1 -0.0145155
46.11 -0.016513
46.12 -0.0183183
46.13 -0.0198695
46.14 -0.0211126
46.15 -0.0220035
46.16 -0.0225097
46.17 -0.0226113
46.18 -0.0222771
46.19 -0.0215285
46.2 -0.020403
46.21 -0.0189368
46.22 -0.0171771
46.23 -0.015181
46.24 -0.0130128
46.25 -0.0107422
46.26 -0.00844178
46.27 -0.00619485
46.28 -0.00407234
46.29 -0.00213822
46.3 -0.000448813
46.31 0.000949124
46.32 0.00202
46.33 0.00274053
46.34 0.00310049
46.35 0.00308752
46.36 0.00272019
46.37 0.00204729
46.38 0.00111088
46.39 -3.78993e-05
46.4 -0.00134073
46.41 -0.00273442
46.42 -0.00415333
46.43 -0.0055318
46.44 -0.00679293
46.45 -0.00788233
46.46 -0.00875204
46.47 -0.0093626
46.48 -0.00968547
46.49 -0.00970419
46.5 -0.00941491
46.51 -0.00882654
46.52 -0.0079532
46.53 -0.00682437
46.54 -0.00550326
46.55 -0.00404354
46.56 -0.00250496
46.57 -0.000951118
46.58 0.000553024
46.59 0.0019436
46.6 0.00316031
46.61 0.00412967
46.62 0.00481204
46.63 0.00517954
46.64 0.00521006
46.65 0.0048941
46.66 0.00423523
46.67 0.00325005
46.68 0.00196768
46.69 0.000425953
46.7 -0.00133169
46.71 -0.0032244
46.72 -0.00518579
46.73 -0.0071463
46.74 -0.00903575
46.75 -0.0107859
46.76 -0.012333
46.77 -0.0136202
46.78 -0.0145808
46.79 -0.0151789
46.8 -0.0154056
46.81 -0.0152525
46.82 -0.0147252
46.83 -0.0138428
46.84 -0.0126377
46.85 -0.0111539
46.86 -0.00944632
46.87 -0.00756947
46.88 -0.00561378
46.89 -0.003653
46.9 -0.00176104
46.91 -9.50835e-06
46.92 0.00153489
46.93 0.00281282
46.94 0.00377451
46.95 0.00436707
46.96 0.00455672
46.97 0.00435557
46.98 0.00376992
46.99 0.00282032
47 0.00154092
47.01 -2.16725e-05
47.02 -0.00181006
47.03 -0.003758
47.04 -0.00579348
47.05 -0.00782708
47.06 -0.00978
47.07 -0.0115772
47.08 -0.0131487
47.09 -0.0144323
47.1 -0.0153755
47.11 -0.015938
47.12 -0.016083
47.13 -0.0157775
47.14 -0.0150568
47.15 -0.013942
47.16 -0.0124679
47.17 -0.0106828
47.18 -0.00864609
47.19 -0.00642687
47.2 -0.00410105
47.21 -0.00175264
47.22 0.000526558
47.23 0.00265615
47.24 0.00456118
47.25 0.00617416
47.26 0.00743744
47.27 0.00830527
47.28 0.00874539
47.29 0.00873707
47.3 0.00824318
47.31 0.00731965
47.32 0.00599792
47.33 0.0043231
47.34 0.00235242
47.35 0.000153191
47.36 -0.00219946
47.37 -0.00462523
47.38 -0.00703694
47.39 -0.00934196
47.4 -0.0114636
47.41 -0.0133308
47.42 -0.0148817
47.43 -0.0160658
47.44 -0.0168453
47.45 -0.0171967
47.46 -0.0171115
47.47 -0.0165611
47.48 -0.0156043
47.49 -0.0142835
47.5 -0.0126495
47.51 -0.0107637
47.52 -0.00869554
47.53 -0.00652044
47.54 -0.00431679
47.55 -0.00216743
47.56 -0.000161191
47.57 0.00163622
47.58 0.00316334
47.59 0.00436897
47.6 0.0052139
47.61 0.00567214
47.62 0.00573179
47.63 0.00539533
47.64 0.00465491
47.65 0.0035632
47.66 0.00217449
47.67 0.000544113
47.68 -0.00126441
47.69 -0.00318171
47.7 -0.00513511
47.71 -0.00705118
47.72 -0.00885566
47.73 -0.0104639
47.74 -0.0118272
47.75 -0.0128967
47.76 -0.0136348
47.77 -0.0140162
47.78 -0.0140288
47.79 -0.0136743
47.8 -0.0129673
47.81 -0.0119202
47.82 -0.0105835
47.83 -0.00902169
47.84 -0.00729457
47.85 -0.00546746
47.86 -0.00360898
47.87 -0.00178857
47.88 -7.39972e-05
47.89 0.00147111
47.9 0.00276357
47.91 0.00377371
47.92 0.00446571
47.93 0.00481546
47.94 0.00481152
47.95 0.00445543
47.96 0.00376168
47.97 0.00275714
47.98 0.00147144
47.99 -4.37209e-05
48 -0.00171526
48.01 -0.00347919
48.02 -0.00526808
48.03 -0.00701342
48.04 -0.00864806
48.05 -0.0101085
48.06 -0.0113372
48.07 -0.0122592
48.08 -0.0128502
48.09 -0.0130885
48.1 -0.0129605
48.11 -0.012465
48.12 -0.0116138
48.13 -0.010431
48.14 -0.00895229
48.15 -0.00721931
48.16 -0.00528468
48.17 -0.00322894
48.18 -0.00111979
48.19 0.000972893
48.2 0.00297939
48.21 0.00483238
48.22 0.00646906
48.23 0.00783322
48.24 0.00885435
48.25 0.00950183
48.26 0.00976167
48.27 0.00962154
48.28 0.00908131
48.29 0.00815297
48.3 0.00686014
48.31 0.00523724
48.32 0.00332649
48.33 0.00116761
48.34 -0.00115534
48.35 -0.00357834
48.36 -0.00603522
48.37 -0.00845972
48.38 -0.0107874
48.39 -0.0129576
48.4 -0.0149148
48.41 -0.0165964
48.42 -0.017958
48.43 -0.0189833
48.44 -0.0196531
48.45 -0.0199584
48.46 -0.0199002
48.47 -0.0194891
48.48 -0.0187446
48.49 -0.0176944
48.5 -0.0163532
48.51 -0.014787
48.52 -0.0130435
48.53 -0.0111705
48.54 -0.00921716
48.55 -0.00723206
48.56 -0.00526225
48.57 -0.00335186
48.58 -0.00154552
48.59 0.000113575
48.6 0.00160328
48.61 0.00290077
48.62 0.00398928
48.63 0.00485812
48.64 0.00550241
48.65 0.00592276
48.66 0.00612473
48.67 0.00610436
48.68 0.00588708
48.69 0.00549471
48.7 0.00494625
48.71 0.00426194
48.72 0.00346259
48.73 0.00256905
48.74 0.00160161
48.75 0.000579134
48.76 -0.000480672
48.77 -0.00155734
48.78 -0.00263595
48.79 -0.00370306
48.8 -0.00474665
48.81 -0.00575595
48.82 -0.00672128
48.83 -0.00763387
48.84 -0.00848181
48.85 -0.00925779
48.86 -0.00995717
48.87 -0.0105733
48.88 -0.0110998
48.89 -0.0115307
48.9 -0.0118607
48.91 -0.012085
48.92 -0.0121999
48.93 -0.0121923
48.94 -0.0120718
48.95 -0.0118397
48.96 -0.0114993
48.97 -0.0110562
48.98 -0.0105185
48.99 -0.00989678
49 -0.00920402
49.01 -0.00845407
49.02 -0.0076662
49.03 -0.00686279
49.04 -0.00606441
49.05 -0.00529218
49.06 -0.00456711
49.07 -0.00390941
49.08 -0.00333774
49.09 -0.00286854
49.1 -0.00252534
49.11 -0.00231087
49.12 -0.00222812
49.13 -0.00227724
49.14 -0.00245349
49.15 -0.0027472
49.16 -0.00314385
49.17 -0.00362433
49.18 -0.00416621
49.19 -0.00474096
49.2 -0.00531465
49.21 -0.00585579
49.22 -0.00633241
49.23 -0.00671316
49.24 -0.00696849
49.25 -0.00707171
49.26 -0.00700014
49.27 -0.00672297
49.28 -0.00623438
49.29 -0.00553661
49.3 -0.00463307
49.31 -0.00353447
49.32 -0.00225885
49.33 -0.00083124
49.34 0.000716833
49.35 0.00234843
49.36 0.00402003
49.37 0.00567877
49.38 0.00727642
49.39 0.0087643
49.4 0.0100948
49.41 0.0112228
49.42 0.0121072
49.43 0.0127125
49.44 0.0129935
49.45 0.012928
49.46 0.0125197
49.47 0.0117671
49.48 0.0106782
49.49 0.00927024
49.5 0.00756959
49.51 0.00561092
49.52 0.00343638
49.53 0.00108452
49.54 -0.00137242
49.55 -0.00387587
49.56 -0.00636691
49.57 -0.00878689
49.58 -0.0110791
49.59 -0.0131903
49.6 -0.0150722
49.61 -0.0166731
49.62 -0.0179467
49.63 -0.0188862
49.64 -0.0194769
49.65 -0.0197135
49.66 -0.0195999
49.67 -0.0191494
49.68 -0.0183833
49.69 -0.0173308
49.7 -0.0160126
49.71 -0.0144871
49.72 -0.0128053
49.73 -0.011015
49.74 -0.00916467
49.75 -0.00730181
49.76 -0.00547172
49.77 -0.00371624
49.78 -0.00207516
49.79 -0.000591596
49.8 0.000719453
49.81 0.00184059
49.82 0.00276123
49.83 0.00347746
49.84 0.00399174
49.85 0.00431228
49.86 0.00445243
49.87 0.00442168
49.88 0.00424664
49.89 0.00395663
49.9 0.00357573
49.91 0.00312782
49.92 0.00263565
49.93 0.00212001
49.94 0.00159904
49.95 0.0010877
49.96 0.000600078
49.97 0.000141911
49.98 -0.000283543
49.99 -0.00067635
50 -0.00103947
50.01 -0.00137819
50.02 -0.00169946
50.03 -0.00201113
50.04 -0.00232147
50.05 -0.0026387
50.06 -0.00296842
50.07 -0.00331409
50.08 -0.00367652
50.09 -0.00405359
50.1 -0.00444001
50.11 -0.0048274
50.12 -0.00520445
50.13 -0.00555404
50.14 -0.00586022
50.15 -0.00610598
50.16 -0.00627371
50.17 -0.0063464
50.18 -0.0063086
50.19 -0.00614737
50.2 -0.00585309
50.21 -0.00541674
50.22 -0.00483214
50.23 -0.00411477
50.24 -0.0032761
50.25 -0.00233317
50.26 -0.00130834
50.27 -0.000228794
50.28 0.000874107
50.29 0.00196579
50.3 0.00300392
50.31 0.00394854
50.32 0.00476443
50.33 0.0054171
50.34 0.00587571
50.35 0.0061144
50.36 0.0061135
50.37 0.00586055
50.38 0.00534866
50.39 0.00456452
50.4 0.00354508
50.41 0.00231432
50.42 0.00090453
50.43 -0.000644421
50.44 -0.00228618
50.45 -0.00396923
50.46 -0.00563847
50.47 -0.0072305
50.48 -0.00868173
50.49 -0.0099416
50.5 -0.0109605
50.51 -0.011695
50.52 -0.0121098
50.53 -0.012179
50.54 -0.0118873
50.55 -0.0112306
50.56 -0.0101871
50.57 -0.00881019
50.58 -0.00713633
50.59 -0.00521057
50.6 -0.0030875
50.61 -0.000829558
50.62 0.00149474
50.63 0.003813
50.64 0.00604588
50.65 0.00810772
50.66 0.00993526
50.67 0.011466
50.68 0.0126459
50.69 0.0134312
50.7 0.0137903
50.71 0.0137048
50.72 0.0131704
50.73 0.0121671
50.74 0.0107472
50.75 0.00896164
50.76 0.00686473
50.77 0.00452162
50.78 0.00200643
50.79 -0.000600067
50.8 -0.00321294
50.81 -0.0057427
50.82 -0.00808608
50.83 -0.0101707
50.84 -0.0119248
50.85 -0.013286
50.86 -0.0142045
50.87 -0.0146438
50.88 -0.0145824
50.89 -0.0140149
50.9 -0.0129246
50.91 -0.0113537
50.92 -0.00936514
50.93 -0.00701741
50.94 -0.00438053
50.95 -0.00153397
50.96 0.00143588
50.97 0.00443843
50.98 0.0073814
50.99 0.010153
51 0.0126759
51.01 0.0148742
51.02 0.016682
51.03 0.0180463
51.04 0.0189281
51.05 0.0193037
51.06 0.0191654
51.07 0.0185016
51.08 0.0173368
51.09 0.01574
51.1 0.0137669
51.11 0.0114842
51.12 0.00896764
51.13 0.00629906
51.14 0.00356389
51.15 0.000848189
51.16 -0.00174919
51.17 -0.0041504
51.18 -0.00628771
51.19 -0.00810236
51.2 -0.00954772
51.21 -0.0105907
51.22 -0.0112127
51.23 -0.0114098
51.24 -0.0111827
51.25 -0.0105446
51.26 -0.00956431
51.27 -0.00829356
51.28 -0.00679293
51.29 -0.00512961
51.3 -0.00337484
51.31 -0.00160128
51.32 0.0001196
51.33 0.00170804
51.34 0.00310173
51.35 0.00425364
51.36 0.00512384
51.37 0.00568437
51.38 0.0059202
51.39 0.00582957
51.4 0.00542399
51.41 0.00472487
51.42 0.00375425
51.43 0.00258423
51.44 0.00127084
51.45 -0.000124255
51.46 -0.00153611
51.47 -0.00289895
51.48 -0.00414874
51.49 -0.00522553
51.5 -0.00606202
51.51 -0.00661029
51.52 -0.00684843
51.53 -0.00675606
51.54 -0.00632543
51.55 -0.00556171
51.56 -0.00448288
51.57 -0.0031191
51.58 -0.00151167
51.59 0.000300418
51.6 0.00223599
51.61 0.00422868
51.62 0.00621018
51.63 0.00811191
51.64 0.00986743
51.65 0.0114149
51.66 0.0126991
51.67 0.0136617
51.68 0.0142555
51.69 0.0144783
51.7 0.0143219
51.71 0.0137912
51.72 0.0129043
51.73 0.0116914
51.74 0.0101942
51.75 0.00846415
51.76 0.00655296
51.77 0.00454253
51.78 0.00250572
51.79 0.00051251
51.8 -0.00136907
51.81 -0.00307534
51.82 -0.00454924
51.83 -0.00574227
51.84 -0.00660956
51.85 -0.00710367
51.86 -0.0072381
51.87 -0.00701498
51.88 -0.00644934
51.89 -0.0055686
51.9 -0.00441151
51.91 -0.00302677
51.92 -0.00147126
51.93 0.000194249
51.94 0.00189232
51.95 0.00355104
51.96 0.00510367
51.97 0.00648746
51.98 0.00764579
51.99 0.00853022
52 0.00910216
52.01 0.00933294
52.02 0.00917615
52.03 0.00866357
52.04 0.00780846
52.05 0.00663626
52.06 0.00518371
52.07 0.00349756
52.08 0.00163286
52.09 -0.000348862
52.1 -0.00238097
52.11 -0.00438698
52.12 -0.00629774
52.13 -0.00804952
52.14 -0.00958402
52.15 -0.0108502
52.16 -0.0118062
52.17 -0.0124203
52.18 -0.0126722
52.19 -0.0125233
52.2 -0.0120059
52.21 -0.0111425
52.22 -0.00996251
52.23 -0.00850478
52.24 -0.00681664
52.25 -0.00495196
52.26 -0.00296932
52.27 -0.000930162
52.28 0.00109676
52.29 0.00304889
52.3 0.00487098
52.31 0.00651368
52.32 0.00793507
52.33 0.0091019
52.34 0.00999051
52.35 0.0105873
52.36 0.0108698
52.37 0.0108588
52.38 0.0105808
52.39 0.0100627
52.4 0.00933862
52.41 0.00844809
52.42 0.00743468
52.43 0.00634418
52.44 0.00522297
52.45 0.0041212
52.46 0.00308162
52.47 0.0021402
52.48 0.00132674
52.49 0.000664013
52.5 0.000167084
52.51 -0.000157011
52.52 -0.000309252
52.53 -0.000290765
52.54 -0.000121458
52.55 0.000168571
52.56 0.000551564
52.57 0.000996506
52.58 0.0014706
52.59 0.00194083
52.6 0.00237542
52.61 0.00274535
52.62 0.00301569
52.63 0.00317385
52.64 0.00320805
52.65 0.00311296
52.66 0.00289034
52.67 0.00254891
52.68 0.00210405
52.69 0.00157707
52.7 0.000993499
52.71 0.000386958
52.72 -0.000206378
52.73 -0.000752736
52.74 -0.00121923
52.75 -0.00157541
52.76 -0.00179465
52.77 -0.00185555
52.78 -0.00174295
52.79 -0.00143525
52.8 -0.000943701
52.81 -0.000281651
52.82 0.000533098
52.83 0.00147525
52.84 0.00251278
52.85 0.00360804
52.86 0.00471902
52.87 0.00579939
52.88 0.0067943
52.89 0.00766175
52.9 0.00836006
52.91 0.00885229
52.92 0.00910784
52.93 0.00910385
52.94 0.00882637
52.95 0.00827118
52.96 0.00742911
52.97 0.00632673
52.98 0.00500237
52.99 0.0034942
53 0.00184858
53.01 0.000118608
53.02 -0.00163753
53.03 -0.00335854
53.04 -0.00498129
53.05 -0.00642537
53.06 -0.00764377
53.07 -0.00858581
53.08 -0.00920876
53.09 -0.00947957
53.1 -0.00937625
53.11 -0.00888888
53.12 -0.00802028
53.13 -0.00677145
53.14 -0.00517402
53.15 -0.00328955
53.16 -0.00117192
53.17 0.00111605
53.18 0.00350445
53.19 0.00591852
53.2 0.00828106
53.21 0.0105149
53.22 0.0125228
53.23 0.0142451
53.24 0.0156246
53.25 0.0166121
53.26 0.0171705
53.27 0.0172759
53.28 0.0169191
53.29 0.0161056
53.3 0.0148446
53.31 0.0131616
53.32 0.0111368
53.33 0.00883304
53.34 0.00632312
53.35 0.0036871
53.36 0.00100993
53.37 -0.00162135
53.38 -0.00412033
53.39 -0.00638414
53.4 -0.0083382
53.41 -0.00992309
53.42 -0.011085
53.43 -0.0117837
53.44 -0.0119935
53.45 -0.0117045
53.46 -0.010923
53.47 -0.00966559
53.48 -0.00794566
53.49 -0.00585614
53.5 -0.00346408
53.51 -0.000846532
53.52 0.00191196
53.53 0.004722
53.54 0.00749221
53.55 0.0101321
53.56 0.0125395
53.57 0.0146279
53.58 0.0163388
53.59 0.0176162
53.6 0.0184178
53.61 0.0187165
53.62 0.0185013
53.63 0.0177773
53.64 0.0165661
53.65 0.0148679
53.66 0.0127803
53.67 0.0103709
53.68 0.00771598
53.69 0.00489921
53.7 0.00200906
53.71 -0.000864084
53.72 -0.00363077
53.73 -0.0061952
53.74 -0.00846405
53.75 -0.0103814
53.76 -0.0118914
53.77 -0.0129513
53.78 -0.0135332
53.79 -0.0136245
53.8 -0.0132282
53.81 -0.0123627
53.82 -0.0110316
53.83 -0.00931336
53.84 -0.00727683
53.85 -0.00499238
53.86 -0.0025373
53.87 6.70383e-06
53.88 0.00255618
53.89 0.00502862
53.9 0.00734013
53.91 0.00939896
53.92 0.0111553
53.93 0.0125578
53.94 0.0135676
53.95 0.0141593
53.96 0.0143213
53.97 0.0140567
53.98 0.0133823
53.99 0.012308
54 0.0108929
54.01 0.00920479
54.02 0.00730732
54.03 0.00526998
54.04 0.00316607
54.05 0.00107021
54.06 -0.000944125
54.07 -0.00280568
54.08 -0.0044267
54.09 -0.00576732
54.1 -0.00678311
54.11 -0.00744089
54.12 -0.00771967
54.13 -0.00761113
54.14 -0.00711979
54.15 -0.0062627
54.16 -0.00505543
54.17 -0.00354272
54.18 -0.00179198
54.19 0.000138614
54.2 0.00218565
54.21 0.00428256
54.22 0.00636181
54.23 0.00835702
54.24 0.0102051
54.25 0.0118265
54.26 0.0131827
54.27 0.0142357
54.28 0.0149556
54.29 0.0153235
54.3 0.0153317
54.31 0.0149839
54.32 0.014295
54.33 0.0132823
54.34 0.0119759
54.35 0.0104415
54.36 0.00873055
54.37 0.00689971
54.38 0.00500838
54.39 0.00311708
54.4 0.0012855
54.41 -0.000429292
54.42 -0.00195965
54.43 -0.00326243
54.44 -0.00430467
54.45 -0.00505764
54.46 -0.005502
54.47 -0.00562833
54.48 -0.0054372
54.49 -0.00493905
54.5 -0.00415015
54.51 -0.0030856
54.52 -0.00180607
54.53 -0.000355514
54.54 0.00121743
54.55 0.00286096
54.56 0.0045217
54.57 0.00614634
54.58 0.0076832
54.59 0.00907405
54.6 0.0102721
54.61 0.0112465
54.62 0.011968
54.63 0.012415
54.64 0.0125744
54.65 0.0124417
54.66 0.0120213
54.67 0.011326
54.68 0.0103555
54.69 0.00916481
54.7 0.00779022
54.71 0.00627289
54.72 0.00465788
54.73 0.00299287
54.74 0.00132678
54.75 -0.000291517
54.76 -0.00180922
54.77 -0.00317401
54.78 -0.00435194
54.79 -0.00530853
54.8 -0.00601539
54.81 -0.00645089
54.82 -0.0066007
54.83 -0.00645804
54.84 -0.00602382
54.85 -0.00528591
54.86 -0.00427971
54.87 -0.00303418
54.88 -0.00157939
54.89 4.94602e-05
54.9 0.00181297
54.91 0.00366858
54.92 0.0055717
54.93 0.00747575
54.94 0.00932843
54.95 0.0110867
54.96 0.0127097
54.97 0.0141607
54.98 0.0154069
54.99 0.0164215
55 0.0171831
55.01 0.0176769
55.02 0.0178778
55.03 0.0177933
55.04 0.0174395
55.05 0.0168301
55.06 0.0159848
55.07 0.0149288
55.08 0.0136923
55.09 0.0123095
55.1 0.0108172
55.11 0.00925349
55.12 0.00766823
55.13 0.00610214
55.14 0.00459475
55.15 0.00318342
55.16 0.00190237
55.17 0.000781824
55.18 -0.00015274
55.19 -0.000871045
55.2 -0.00135742
55.21 -0.00161552
55.22 -0.00164537
55.23 -0.0014534
55.24 -0.00105224
55.25 -0.00046038
55.26 0.000298381
55.27 0.00119558
55.28 0.00220494
55.29 0.0032796
55.3 0.00438117
55.31 0.0054715
55.32 0.00651295
55.33 0.00746939
55.34 0.0083073
55.35 0.00899669
55.36 0.00950606
55.37 0.00980694
55.38 0.00989772
55.39 0.00977184
55.4 0.00942939
55.41 0.00887721
55.42 0.00812867
55.43 0.00720342
55.44 0.00612685
55.45 0.00492346
55.46 0.00363755
55.47 0.00231053
55.48 0.000982817
55.49 -0.000304458
55.5 -0.00151063
55.51 -0.00259669
55.52 -0.00352647
55.53 -0.00426441
55.54 -0.00476696
55.55 -0.00502938
55.56 -0.00503817
55.57 -0.0047869
55.58 -0.00427647
55.59 -0.00351515
55.6 -0.00251846
55.61 -0.00130872
55.62 9.35566e-05
55.63 0.00164682
55.64 0.00330423
55.65 0.00502302
55.66 0.00675842
55.67 0.00846491
55.68 0.0100975
55.69 0.0116131
55.7 0.0129715
55.71 0.0141157
55.72 0.0150317
55.73 0.0156962
55.74 0.0160932
55.75 0.0162135
55.76 0.0160559
55.77 0.0156262
55.78 0.0149379
55.79 0.0140029
55.8 0.0128479
55.81 0.011519
55.82 0.010053
55.83 0.00849011
55.84 0.00687202
55.85 0.00524119
55.86 0.0036394
55.87 0.00210663
55.88 0.000690848
55.89 -0.000579083
55.9 -0.00167799
55.91 -0.00258464
55.92 -0.00328394
55.93 -0.00376728
55.94 -0.00403254
55.95 -0.00408398
55.96 -0.00392758
55.97 -0.00357253
55.98 -0.00305495
55.99 -0.0024004
56 -0.00163733
56.01 -0.000796044
56.02 9.23102e-05
56.03 0.000996781
56.04 0.0018876
56.05 0.00273294
56.06 0.00350711
56.07 0.00419144
56.08 0.00477016
56.09 0.00523213
56.1 0.00557108
56.11 0.00578553
56.12 0.00587869
56.13 0.00585733
56.14 0.00572623
56.15 0.00551051
56.16 0.00522793
56.17 0.00489785
56.18 0.00454045
56.19 0.00417595
56.2 0.00382378
56.21 0.00350191
56.22 0.00322901
56.23 0.00301958
56.24 0.00288068
56.25 0.00281824
56.26 0.00283466
56.27 0.00292889
56.28 0.0030966
56.29 0.00333043
56.3 0.00362045
56.31 0.00395729
56.32 0.0043226
56.33 0.00470153
56.34 0.00507947
56.35 0.00544235
56.36 0.00577722
56.37 0.00607275
56.38 0.00631967
56.39 0.00650924
56.4 0.00663522
56.41 0.00670033
56.42 0.00670645
56.43 0.00665802
56.44 0.00656172
56.45 0.00642614
56.46 0.0062613
56.47 0.00607821
56.48 0.0058886
56.49 0.00570509
56.5 0.00553812
56.51 0.00539669
56.52 0.00528804
56.53 0.00521734
56.54 0.00518743
56.55 0.00519871
56.56 0.00524961
56.57 0.00533713
56.58 0.00545112
56.59 0.00558272
56.6 0.00572175
56.61 0.00585723
56.62 0.0059779
56.63 0.0060728
56.64 0.00613184
56.65 0.00614351
56.66 0.00610127
56.67 0.00600311
56.68 0.00584793
56.69 0.00563753
56.7 0.00537666
56.71 0.00507293
56.72 0.00473659
56.73 0.00438017
56.74 0.004019
56.75 0.00367061
56.76 0.00335125
56.77 0.00307688
56.78 0.00286244
56.79 0.00272109
56.8 0.00266355
56.81 0.00269743
56.82 0.00283058
56.83 0.00306388
56.84 0.00338678
56.85 0.00378961
56.86 0.00425844
56.87 0.0047754
56.88 0.00531914
56.89 0.00586543
56.9 0.00638796
56.91 0.00685292
56.92 0.00723338
56.93 0.00750365
56.94 0.00763941
56.95 0.00761954
56.96 0.00742711
56.97 0.0070502
56.98 0.00648265
56.99 0.00572015
57 0.0047626
57.01 0.00363859
57.02 0.00236993
57.03 0.000984703
57.04 -0.00048344
57.05 -0.00199608
57.06 -0.00351107
57.07 -0.00498375
57.08 -0.00635966
57.09 -0.0075913
57.1 -0.00863835
57.11 -0.00946119
57.12 -0.0100252
57.13 -0.010302
57.14 -0.0102704
57.15 -0.00991788
57.16 -0.00923766
57.17 -0.00821226
57.18 -0.00688686
57.19 -0.00528801
57.2 -0.00345095
57.21 -0.00141878
57.22 0.000758639
57.23 0.00302597
57.24 0.00532396
57.25 0.00758647
57.26 0.00974376
57.27 0.0117376
57.28 0.0135118
57.29 0.0150153
57.3 0.0162041
57.31 0.0170428
57.32 0.017505
57.33 0.0175753
57.34 0.0172147
57.35 0.0164643
57.36 0.0153473
57.37 0.0138946
57.38 0.012147
57.39 0.010154
57.4 0.00797225
57.41 0.00566409
57.42 0.0032962
57.43 0.000945062
57.44 -0.00131835
57.45 -0.00342872
57.46 -0.00532516
57.47 -0.00695294
57.48 -0.00826507
57.49 -0.00922362
57.5 -0.00980079
57.51 -0.0099506
57.52 -0.00968842
57.53 -0.00903178
57.54 -0.00800026
57.55 -0.00662384
57.56 -0.00494189
57.57 -0.00300194
57.58 -0.00085828
57.59 0.00143108
57.6 0.00380161
57.61 0.00617877
57.62 0.00849938
57.63 0.010703
57.64 0.0127337
57.65 0.0145413
57.66 0.016083
57.67 0.0173244
57.68 0.0182207
57.69 0.0187618
57.7 0.0189567
57.71 0.0188116
57.72 0.0183418
57.73 0.0175713
57.74 0.0165315
57.75 0.0152601
57.76 0.0137997
57.77 0.0121885
57.78 0.0104919
57.79 0.008759
57.8 0.00703729
57.81 0.00537176
57.82 0.00380346
57.83 0.00236847
57.84 0.00109708
57.85 2.14409e-05
57.86 -0.000837749
57.87 -0.00148256
57.88 -0.00191179
57.89 -0.00213086
57.9 -0.00215125
57.91 -0.00198979
57.92 -0.00166782
57.93 -0.00121024
57.94 -0.000638121
57.95 9.72958e-06
57.96 0.000702621
57.97 0.0014122
57.98 0.00211185
57.99 0.00277745
58 0.00338806
58.01 0.00392633
58.02 0.00437648
58.03 0.00472451
58.04 0.00497226
58.05 0.00511937
58.06 0.00516899
58.07 0.00512733
58.08 0.0050031
58.09 0.00480693
58.1 0.00455071
58.11 0.0042447
58.12 0.00390438
58.13 0.00354284
58.14 0.00317062
58.15 0.0027967
58.16 0.00242828
58.17 0.00207059
58.18 0.00172686
58.19 0.00139862
58.2 0.00108648
58.21 0.00078716
58.22 0.000497756
58.23 0.00021492
58.24 -6.47051e-05
58.25 -0.000344007
58.26 -0.000624971
58.27 -0.000908281
58.28 -0.00119292
58.29 -0.00147545
58.3 -0.00175052
58.31 -0.00201085
58.32 -0.00224729
58.33 -0.00244906
58.34 -0.00260412
58.35 -0.00269964
58.36 -0.00272252
58.37 -0.00265136
58.38 -0.00248069
58.39 -0.00220134
58.4 -0.00180604
58.41 -0.00129049
58.42 -0.000653834
58.43 0.000100968
58.44 0.000966873
58.45 0.00193547
58.46 0.00299137
58.47 0.00410843
58.48 0.00526298
58.49 0.0064285
58.5 0.00757626
58.51 0.00867611
58.52 0.0096974
58.53 0.01061
58.54 0.0113731
58.55 0.0119653
58.56 0.0123679
58.57 0.0125633
58.58 0.0125395
58.59 0.01229
58.6 0.0118147
58.61 0.0111201
58.62 0.0102157
58.63 0.00911268
58.64 0.00785327
58.65 0.00646931
58.66 0.00499706
58.67 0.00347617
58.68 0.00194862
58.69 0.000457504
58.7 -0.000954275
58.71 -0.002236
58.72 -0.00334741
58.73 -0.00425955
58.74 -0.00494417
58.75 -0.0053793
58.76 -0.00555004
58.77 -0.00544908
58.78 -0.00507705
58.79 -0.00444201
58.8 -0.00354078
58.81 -0.00242311
58.82 -0.0011214
58.83 0.000326187
58.84 0.00187676
58.85 0.00348397
58.86 0.00509932
58.87 0.00667357
58.88 0.00815238
58.89 0.00948256
58.9 0.0106274
58.91 0.0115501
58.92 0.0122205
58.93 0.012615
58.94 0.0127185
58.95 0.0125236
58.96 0.012032
58.97 0.0112319
58.98 0.0101643
58.99 0.00886082
59 0.00735639
59.01 0.00569175
59.02 0.00391244
59.03 0.00206749
59.04 0.000208098
59.05 -0.0016114
59.06 -0.0033305
59.07 -0.00490388
59.08 -0.00628695
59.09 -0.00744007
59.1 -0.00832959
59.11 -0.00892879
59.12 -0.00921846
59.13 -0.00918744
59.14 -0.00881191
59.15 -0.00811104
59.16 -0.0071095
59.17 -0.00583016
59.18 -0.00430281
59.19 -0.00256329
59.2 -0.000652563
59.21 0.00138435
59.22 0.00349979
59.23 0.00564113
59.24 0.00775244
59.25 0.00978475
59.26 0.0116913
59.27 0.0134284
59.28 0.0149567
59.29 0.0162417
59.3 0.0172548
59.31 0.0179577
59.32 0.0183352
59.33 0.0183929
59.34 0.0181301
59.35 0.017553
59.36 0.016674
59.37 0.0155116
59.38 0.01409
59.39 0.0124381
59.4 0.0105748
59.41 0.00855697
59.42 0.00642547
59.43 0.00422184
59.44 0.00198844
59.45 -0.00023229
59.46 -0.00239866
59.47 -0.00447046
59.48 -0.00640374
59.49 -0.00815519
59.5 -0.00970209
59.51 -0.0110175
59.52 -0.0120787
59.53 -0.0128679
59.54 -0.0133724
59.55 -0.0135844
59.56 -0.0135015
59.57 -0.0131058
59.58 -0.0124225
59.59 -0.0114722
59.6 -0.0102742
59.61 -0.00885229
59.62 -0.00723447
59.63 -0.00545242
59.64 -0.00354102
59.65 -0.0015368
59.66 0.000519337
59.67 0.00258
59.68 0.00460391
59.69 0.00655022
59.7 0.00837927
59.71 0.0100534
59.72 0.0115377
59.73 0.0128007
59.74 0.0137992
59.75 0.0145147
59.76 0.0149406
59.77 0.0150672
59.78 0.0148911
59.79 0.0144154
59.8 0.0136499
59.81 0.0126105
59.82 0.011319
59.83 0.00978715
59.84 0.00807213
59.85 0.00621301
59.86 0.00425243
59.87 0.00223569
59.88 0.0002097
59.89 -0.00177808
59.9 -0.0036808
59.91 -0.00544582
59.92 -0.00702453
59.93 -0.0083867
59.94 -0.00950022
59.95 -0.010339
59.96 -0.0108835
59.97 -0.0111216
59.98 -0.0110487
59.99 -0.0106678
60 -0.00996674
60.01 -0.00898752
60.02 -0.00776051
60.03 -0.0063187
60.04 -0.00470039
60.05 -0.00294818
60.06 -0.00110791
60.07 0.000772624
60.08 0.00264325
60.09 0.00444846
60.1 0.00614376
60.11 0.00768698
60.12 0.00904038
60.13 0.0101716
60.14 0.0110545
60.15 0.0116699
60.16 0.0120056
60.17 0.0120383
60.18 0.0117834
60.19 0.0112607
60.2 0.0104888
60.21 0.00949219
60.22 0.00830081
60.23 0.00694877
60.24 0.00547342
60.25 0.00391372
60.26 0.00231105
60.27 0.000711701
60.28 -0.000846176
60.29 -0.00232713
60.3 -0.00369933
60.31 -0.0049354
60.32 -0.00601295
60.33 -0.00691509
60.34 -0.00762085
60.35 -0.00812645
60.36 -0.00844166
60.37 -0.00857336
60.38 -0.00853319
60.39 -0.00833687
60.4 -0.00800348
60.41 -0.00755461
60.42 -0.00701347
60.43 -0.00639998
60.44 -0.00574562
60.45 -0.00507301
60.46 -0.00440258
60.47 -0.00375217
60.48 -0.00313658
60.49 -0.0025672
60.5 -0.00205185
60.51 -0.00159683
60.52 -0.0012039
60.53 -0.000866386
60.54 -0.000578397
60.55 -0.000331903
60.56 -0.00011735
60.57 7.56633e-05
60.58 0.000257693
60.59 0.000438765
60.6 0.000628861
60.61 0.000834972
60.62 0.00106113
60.63 0.00130885
60.64 0.00157671
60.65 0.00186034
60.66 0.00215249
60.67 0.00244327
60.68 0.00271999
60.69 0.00296563
60.7 0.0031662
60.71 0.0033063
60.72 0.00337113
60.73 0.00334717
60.74 0.00322303
60.75 0.0029901
60.76 0.00264321
60.77 0.00217453
60.78 0.00159105
60.79 0.000905699
60.8 0.000131983
60.81 -0.000712119
60.82 -0.00160452
60.83 -0.00251955
60.84 -0.00342866
60.85 -0.00430093
60.86 -0.00509573
60.87 -0.00578526
60.88 -0.00633932
60.89 -0.00673022
60.9 -0.0069338
60.91 -0.0069305
60.92 -0.00670618
60.93 -0.0062529
60.94 -0.00555966
60.95 -0.00463266
60.96 -0.0034985
60.97 -0.00217929
60.98 -0.000703819
60.99 0.000892989
61 0.00257097
61.01 0.00428575
61.02 0.00598991
61.03 0.00762521
61.04 0.00914236
61.05 0.0104945
61.06 0.0116372
61.07 0.0125305
61.08 0.0131402
61.09 0.0134391
61.1 0.0134078
61.11 0.0130259
61.12 0.0122799
61.13 0.0112026
61.14 0.00981319
61.15 0.00813996
61.16 0.00621928
61.17 0.00409478
61.18 0.00181621
61.19 -0.000561937
61.2 -0.0029806
61.21 -0.00537232
61.22 -0.00767705
61.23 -0.00983785
61.24 -0.0118015
61.25 -0.0135201
61.26 -0.0149522
61.27 -0.0160641
61.28 -0.0168263
61.29 -0.0171976
61.3 -0.0172028
61.31 -0.0168482
61.32 -0.0161494
61.33 -0.0151311
61.34 -0.0138262
61.35 -0.0122746
61.36 -0.0105223
61.37 -0.00861449
61.38 -0.00661295
61.39 -0.00457851
61.4 -0.00256525
61.41 -0.000625079
61.42 0.00119378
61.43 0.00284805
61.44 0.00430058
61.45 0.00552128
61.46 0.0064632
61.47 0.00713505
61.48 0.00753377
61.49 0.00766383
61.5 0.00753748
61.51 0.00717417
61.52 0.00659964
61.53 0.00584496
61.54 0.00494148
61.55 0.00392976
61.56 0.00285763
61.57 0.00176459
61.58 0.000688734
61.59 -0.000334518
61.6 -0.00127345
61.61 -0.00210099
61.62 -0.00279542
61.63 -0.00332884
61.64 -0.00370027
61.65 -0.00391066
61.66 -0.00396423
61.67 -0.00387091
61.68 -0.00364572
61.69 -0.00330802
61.7 -0.00288067
61.71 -0.00238826
61.72 -0.00185863
61.73 -0.00132334
61.74 -0.000808601
61.75 -0.000338724
61.76 6.47363e-05
61.77 0.000383742
61.78 0.000604363
61.79 0.000717218
61.8 0.000710946
61.81 0.000589538
61.82 0.000362953
61.83 4.16632e-05
61.84 -0.000360013
61.85 -0.000824541
61.86 -0.00133191
61.87 -0.00186045
61.88 -0.00238758
61.89 -0.00288687
61.9 -0.0033378
61.91 -0.00372138
61.92 -0.00402139
61.93 -0.00422491
61.94 -0.00432285
61.95 -0.00431021
61.96 -0.0041863
61.97 -0.00395024
61.98 -0.00361074
61.99 -0.00318546
62 -0.00268994
62.01 -0.0021423
62.02 -0.00156257
62.03 -0.000971887
62.04 -0.000391735
62.05 0.00015688
62.06 0.000648366
62.07 0.00106762
62.08 0.0014008
62.09 0.00163684
62.1 0.00176836
62.11 0.00179193
62.12 0.00170816
62.13 0.00152163
62.14 0.0012383
62.15 0.000868743
62.16 0.000434407
62.17 -4.71143e-05
62.18 -0.000556697
62.19 -0.00107443
62.2 -0.00158035
62.21 -0.00205526
62.22 -0.00248138
62.23 -0.00283775
62.24 -0.00311337
62.25 -0.0033011
62.26 -0.00339575
62.27 -0.00339598
62.28 -0.00330435
62.29 -0.00312721
62.3 -0.00287445
62.31 -0.00255855
62.32 -0.00219399
62.33 -0.00180391
62.34 -0.00140775
62.35 -0.00102546
62.36 -0.000676667
62.37 -0.00037998
62.38 -0.000152239
62.39 -7.8647e-06
62.4 3.62367e-05
62.41 -2.72098e-05
62.42 -0.00019742
62.43 -0.000473526
62.44 -0.00085058
62.45 -0.00131968
62.46 -0.00186824
62.47 -0.00248038
62.48 -0.00313746
62.49 -0.00381883
62.5 -0.00449817
62.51 -0.00515255
62.52 -0.00575939
62.53 -0.00629729
62.54 -0.00674672
62.55 -0.00709076
62.56 -0.00731571
62.57 -0.00740649
62.58 -0.00735452
62.59 -0.00716681
62.6 -0.00684745
62.61 -0.00640494
62.62 -0.00585196
62.63 -0.00520495
62.64 -0.00448367
62.65 -0.00371055
62.66 -0.00290987
62.67 -0.00211137
62.68 -0.00134133
62.69 -0.000624891
62.7 1.43389e-05
62.71 0.000555055
62.72 0.000978956
62.73 0.00127134
62.74 0.00141835
62.75 0.00140623
62.76 0.00124507
62.77 0.000939303
62.78 0.000497979
62.79 -6.5511e-05
62.8 -0.000733841
62.81 -0.00148628
62.82 -0.00229935
62.83 -0.00314799
62.84 -0.00400132
62.85 -0.0048312
62.86 -0.00561118
62.87 -0.00631628
62.88 -0.00692379
62.89 -0.00741391
62.9 -0.00777037
62.91 -0.0079799
62.92 -0.00802176
62.93 -0.00790677
62.94 -0.00763743
62.95 -0.00722078
62.96 -0.00666818
62.97 -0.0059949
62.98 -0.00521968
62.99 -0.0043641
63 -0.0034505
63.01 -0.00250732
63.02 -0.00156304
63.03 -0.000643199
63.04 0.000227736
63.05 0.00102709
63.06 0.00173461
63.07 0.00233304
63.08 0.00280859
63.09 0.00313937
63.1 0.00332969
63.11 0.00337987
63.12 0.00329303
63.13 0.00307615
63.14 0.00273973
63.15 0.00229738
63.16 0.00176534
63.17 0.00116032
63.18 0.000502639
63.19 -0.000182789
63.2 -0.000875555
63.21 -0.00155597
63.22 -0.00220568
63.23 -0.00280818
63.24 -0.00334931
63.25 -0.0038176
63.26 -0.00419853
63.27 -0.00449039
63.28 -0.00469387
63.29 -0.00481076
63.3 -0.0048458
63.31 -0.00480638
63.32 -0.00470218
63.33 -0.00454475
63.34 -0.00434663
63.35 -0.00412127
63.36 -0.00388574
63.37 -0.00365358
63.38 -0.00343744
63.39 -0.00324856
63.4 -0.00309633
63.41 -0.00298801
63.42 -0.00292843
63.43 -0.00292259
63.44 -0.00296898
63.45 -0.00306195
63.46 -0.00319551
63.47 -0.00336151
63.48 -0.00355001
63.49 -0.00374963
63.5 -0.0039481
63.51 -0.00413271
63.52 -0.00428722
63.53 -0.00440138
63.54 -0.00446476
63.55 -0.00446869
63.56 -0.00440669
63.57 -0.00427479
63.58 -0.0040718
63.59 -0.00379949
63.6 -0.00346044
63.61 -0.00306271
63.62 -0.00262101
63.63 -0.00214896
63.64 -0.00166225
63.65 -0.00117814
63.66 -0.000714976
63.67 -0.000291573
63.68 7.34337e-05
63.69 0.000354968
63.7 0.000540139
63.71 0.000616572
63.72 0.000573422
63.73 0.000403138
63.74 0.000101866
63.75 -0.000330263
63.76 -0.000888952
63.77 -0.00156809
63.78 -0.00235827
63.79 -0.00323368
63.8 -0.00417339
63.81 -0.00515345
63.82 -0.00614758
63.83 -0.00712782
63.84 -0.00806527
63.85 -0.00893099
63.86 -0.00968884
63.87 -0.0103127
63.88 -0.0107826
63.89 -0.0110786
63.9 -0.0111851
63.91 -0.0110914
63.92 -0.0107916
63.93 -0.010286
63.94 -0.00957875
63.95 -0.0086683
63.96 -0.00759053
63.97 -0.00636929
63.98 -0.00503315
63.99 -0.00361478
64 -0.00215012
64.01 -0.000677485
64.02 0.000763432
64.03 0.00212734
64.04 0.00337014
64.05 0.00445884
64.06 0.00536007
64.07 0.00604472
64.08 0.00648885
64.09 0.00667447
64.1 0.00659015
64.11 0.00623149
64.12 0.00557885
64.13 0.00466584
64.14 0.00351385
64.15 0.00214883
64.16 0.000602925
64.17 -0.00108633
64.18 -0.00287693
64.19 -0.00472346
64.2 -0.00657695
64.21 -0.00838195
64.22 -0.0100906
64.23 -0.011657
64.24 -0.013039
64.25 -0.0141988
64.26 -0.0151043
64.27 -0.01573
64.28 -0.016058
64.29 -0.0160564
64.3 -0.0157393
64.31 -0.015123
64.32 -0.0142249
64.33 -0.0130704
64.34 -0.011692
64.35 -0.0101292
64.36 -0.00842655
64.37 -0.00663254
64.38 -0.00480235
64.39 -0.00299611
64.4 -0.00126706
64.41 0.000333407
64.42 0.00175724
64.43 0.00296106
64.44 0.00390744
64.45 0.00456598
64.46 0.00489633
64.47 0.00488926
64.48 0.00455462
64.49 0.00389925
64.5 0.00293921
64.51 0.00169931
64.52 0.000212536
64.53 -0.00148085
64.54 -0.00333439
64.55 -0.00530174
64.56 -0.00731302
64.57 -0.00931116
64.58 -0.0112391
64.59 -0.0130412
64.6 -0.0146653
64.61 -0.0160636
64.62 -0.0171943
64.63 -0.0180097
64.64 -0.0184761
64.65 -0.0185949
64.66 -0.0183602
64.67 -0.0177757
64.68 -0.0168545
64.69 -0.0156193
64.7 -0.0141009
64.71 -0.012338
64.72 -0.0103644
64.73 -0.00824896
64.74 -0.00604999
64.75 -0.00382494
64.76 -0.00163171
64.77 0.000472933
64.78 0.00243485
64.79 0.00420404
64.8 0.00572928
64.81 0.00695652
64.82 0.00787461
64.83 0.00846381
64.84 0.00871336
64.85 0.00862173
64.86 0.00819658
64.87 0.00745437
64.88 0.00641991
64.89 0.00511156
64.9 0.00358178
64.91 0.00188384
64.92 6.68163e-05
64.93 -0.00181787
64.94 -0.0037179
64.95 -0.00558147
64.96 -0.00735875
64.97 -0.00900168
64.98 -0.010451
64.99 -0.0116839
65 -0.012672
65.01 -0.0133945
65.02 -0.0138383
65.03 -0.0139983
65.04 -0.0138774
65.05 -0.0134861
65.06 -0.0128316
65.07 -0.0119426
65.08 -0.0108623
65.09 -0.00962701
65.1 -0.00827621
65.11 -0.00685186
65.12 -0.00539696
65.13 -0.00395438
65.14 -0.00256571
65.15 -0.00128137
65.16 -0.000131915
65.17 0.000853233
65.18 0.00164926
65.19 0.00223723
65.2 0.00260444
65.21 0.00274467
65.22 0.00265815
65.23 0.00234475
65.24 0.00181303
65.25 0.00109591
65.26 0.000217441
65.27 -0.000794354
65.28 -0.00190831
65.29 -0.00309102
65.3 -0.00430775
65.31 -0.0055234
65.32 -0.00669843
65.33 -0.0077984
65.34 -0.00879402
65.35 -0.00965825
65.36 -0.0103679
65.37 -0.0109039
65.38 -0.011252
65.39 -0.0114027
65.4 -0.0113484
65.41 -0.011078
65.42 -0.0106139
65.43 -0.00996726
65.44 -0.00915364
65.45 -0.00819225
65.46 -0.00710555
65.47 -0.00591869
65.48 -0.00465885
65.49 -0.00335383
65.5 -0.00203727
65.51 -0.00074004
65.52 0.000509268
65.53 0.00168339
65.54 0.00275693
65.55 0.00370687
65.56 0.00451298
65.57 0.00515803
65.58 0.00561145
65.59 0.00587958
65.6 0.0059574
65.61 0.00584382
65.62 0.00554167
65.63 0.00505761
65.64 0.00440197
65.65 0.00358853
65.66 0.0026293
65.67 0.00154514
65.68 0.000366101
65.69 -0.000883425
65.7 -0.00217771
65.71 -0.00349021
65.72 -0.00479412
65.73 -0.00606288
65.74 -0.00727077
65.75 -0.00838474
65.76 -0.00938614
65.77 -0.0102567
65.78 -0.0109799
65.79 -0.0115423
65.8 -0.0119343
65.81 -0.01215
65.82 -0.0121874
65.83 -0.0120447
65.84 -0.0117217
65.85 -0.0112418
65.86 -0.01062
65.87 -0.00987439
65.88 -0.00902629
65.89 -0.00809938
65.9 -0.00711926
65.91 -0.00611282
65.92 -0.00510946
65.93 -0.00413945
65.94 -0.00322892
65.95 -0.00240241
65.96 -0.00168206
65.97 -0.001087
65.98 -0.000632729
65.99 -0.000330716
66 -0.000189503
66.01 -0.000223341
66.02 -0.000414916
66.03 -0.000755724
66.04 -0.00123263
66.05 -0.00182817
66.06 -0.00252102
66.07 -0.00328654
66.08 -0.00409745
66.09 -0.00492388
66.1 -0.00573171
66.11 -0.00649022
66.12 -0.00717026
66.13 -0.00774459
66.14 -0.00818877
66.15 -0.0084819
66.16 -0.00860733
66.17 -0.00855326
66.18 -0.00829663
66.19 -0.00785266
66.2 -0.00722858
66.21 -0.00643609
66.22 -0.00549222
66.23 -0.00441887
66.24 -0.00324224
66.25 -0.00199211
66.26 -0.00070077
66.27 0.000593613
66.28 0.00185391
66.29 0.00304584
66.3 0.00413683
66.31 0.00509699
66.32 0.00590009
66.33 0.00652435
66.34 0.00695319
66.35 0.00716035
66.36 0.00715209
66.37 0.00693589
66.38 0.00652093
66.39 0.00592231
66.4 0.00516055
66.41 0.00426099
66.42 0.00325292
66.43 0.00216797
66.44 0.00104173
66.45 -8.51984e-05
66.46 -0.0011783
66.47 -0.00220486
66.48 -0.00313503
66.49 -0.00394287
66.5 -0.00460716
66.51 -0.00511219
66.52 -0.00543842
66.53 -0.00558643
66.54 -0.00556729
66.55 -0.00539204
66.56 -0.00507767
66.57 -0.00464655
66.58 -0.00412559
66.59 -0.00354538
66.6 -0.00293907
66.61 -0.00234525
66.62 -0.00180027
66.63 -0.0013371
66.64 -0.000986018
66.65 -0.000773441
66.66 -0.000720927
66.67 -0.000844288
66.68 -0.00115291
66.69 -0.0016569
66.7 -0.00235215
66.71 -0.00321524
66.72 -0.00422594
66.73 -0.0053578
66.74 -0.00657889
66.75 -0.00785285
66.76 -0.00913995
66.77 -0.0103984
66.78 -0.0115766
66.79 -0.012634
66.8 -0.0135327
66.81 -0.0142379
66.82 -0.0147194
66.83 -0.0149537
66.84 -0.0149238
66.85 -0.0146207
66.86 -0.0140367
66.87 -0.0131695
66.88 -0.0120555
66.89 -0.0107197
66.9 -0.00919439
66.91 -0.00751773
66.92 -0.00573284
66.93 -0.00388646
66.94 -0.00202753
66.95 -0.000211352
66.96 0.00150969
66.97 0.00309131
66.98 0.0044922
66.99 0.00567654
67 0.00661511
67.01 0.00728621
67.02 0.0076763
67.03 0.00777743
67.04 0.00757382
67.05 0.00710374
67.06 0.00638929
67.07 0.00545973
67.08 0.00435045
67.09 0.00310175
67.1 0.00175757
67.11 0.000363933
67.12 -0.00103027
67.13 -0.00237387
67.14 -0.00362459
67.15 -0.00474424
67.16 -0.00570004
67.17 -0.00646565
67.18 -0.00702199
67.19 -0.00735775
67.2 -0.00746966
67.21 -0.00734408
67.22 -0.00701433
67.23 -0.00650289
67.24 -0.00583728
67.25 -0.00505011
67.26 -0.00417782
67.27 -0.00325936
67.28 -0.0023347
67.29 -0.00144591
67.3 -0.000636594
67.31 6.21612e-05
67.32 0.000621749
67.33 0.00101939
67.34 0.00123893
67.35 0.00127142
67.36 0.00111538
67.37 0.000776842
67.38 0.000258134
67.39 -0.000408771
67.4 -0.00119316
67.41 -0.00206311
67.42 -0.00298325
67.43 -0.00391611
67.44 -0.00482353
67.45 -0.00566812
67.46 -0.00641223
67.47 -0.00701404
67.48 -0.00745593
67.49 -0.00771864
67.5 -0.00778985
67.51 -0.00766473
67.52 -0.00734619
67.53 -0.00684492
67.54 -0.00617908
67.55 -0.00536747
67.56 -0.00444866
67.57 -0.00346469
67.58 -0.00245605
67.59 -0.00146516
67.6 -0.000534848
67.61 0.000293228
67.62 0.000980097
67.63 0.00149031
67.64 0.00177435
67.65 0.00182803
67.66 0.0016385
67.67 0.00120138
67.68 0.000521177
67.69 -0.000388722
67.7 -0.00150631
67.71 -0.00280153
67.72 -0.00424118
67.73 -0.00577671
67.74 -0.0073522
67.75 -0.00891594
67.76 -0.0104152
67.77 -0.0117977
67.78 -0.013014
67.79 -0.0140182
67.8 -0.0147704
67.81 -0.0152123
67.82 -0.0153382
67.83 -0.0151388
67.84 -0.0146108
67.85 -0.0137613
67.86 -0.0126077
67.87 -0.0111769
67.88 -0.00950473
67.89 -0.00763134
67.9 -0.00560775
67.91 -0.00350353
67.92 -0.00137836
67.93 0.000706941
67.94 0.00269228
67.95 0.00452018
67.96 0.00613751
67.97 0.00749721
67.98 0.00853787
67.99 0.00923831
68 0.00958839
68.01 0.00958005
68.02 0.00921598
68.03 0.00850954
68.04 0.0074843
68.05 0.00617332
68.06 0.0046159
68.07 0.00285223
68.08 0.000957268
68.09 -0.00101032
68.1 -0.0029903
68.11 -0.00492275
68.12 -0.00674989
68.13 -0.00841786
68.14 -0.00987838
68.15 -0.0110757
68.16 -0.0119758
68.17 -0.0125681
68.18 -0.0128411
68.19 -0.0127934
68.2 -0.0124338
68.21 -0.0117806
68.22 -0.0108613
68.23 -0.00971141
68.24 -0.00836057
68.25 -0.00687724
68.26 -0.00531417
68.27 -0.00372495
68.28 -0.00216302
68.29 -0.000679985
68.3 0.000676037
68.31 0.00186191
68.32 0.0028324
68.33 0.00354998
68.34 0.00400816
68.35 0.00419686
68.36 0.00411518
68.37 0.00377126
68.38 0.00318193
68.39 0.00237202
68.4 0.00137345
68.41 0.000216102
68.42 -0.00104443
68.43 -0.00235903
68.44 -0.00368021
68.45 -0.0049608
68.46 -0.00615548
68.47 -0.00722225
68.48 -0.00812369
68.49 -0.0088238
68.5 -0.00928372
68.51 -0.00950304
68.52 -0.00947439
68.53 -0.00919861
68.54 -0.00868462
68.55 -0.00794908
68.56 -0.00701575
68.57 -0.00591466
68.58 -0.00467567
68.59 -0.0033463
68.6 -0.00197363
68.61 -0.000601252
68.62 0.000727594
68.63 0.00197137
68.64 0.00309152
68.65 0.00405366
68.66 0.00482768
68.67 0.0053707
68.68 0.00568525
68.69 0.00576375
68.7 0.00560596
68.71 0.00521891
68.72 0.00461658
68.73 0.00381941
68.74 0.00285355
68.75 0.00174569
68.76 0.000534814
68.77 -0.000734096
68.78 -0.00202156
68.79 -0.00328801
68.8 -0.0044949
68.81 -0.00560591
68.82 -0.00658788
68.83 -0.00741181
68.84 -0.00803688
68.85 -0.00845687
68.86 -0.00866272
68.87 -0.00864955
68.88 -0.00841875
68.89 -0.00797785
68.9 -0.00734015
68.91 -0.00652429
68.92 -0.00555004
68.93 -0.0044433
68.94 -0.0032451
68.95 -0.00198838
68.96 -0.000707126
68.97 0.000564583
68.98 0.00179349
68.99 0.00294802
69 0.00399907
69.01 0.00491045
69.02 0.00566355
69.03 0.00624516
69.04 0.00664317
69.05 0.00685033
69.06 0.00686432
69.07 0.00668764
69.08 0.00632745
69.09 0.0057933
69.1 0.00509167
69.11 0.00425612
69.12 0.00330899
69.13 0.00227476
69.14 0.00117941
69.15 4.97647e-05
69.16 -0.00108714
69.17 -0.00220464
69.18 -0.00327345
69.19 -0.00426711
69.2 -0.00516609
69.21 -0.00595134
69.22 -0.00660663
69.23 -0.00711884
69.24 -0.00747813
69.25 -0.00767804
69.26 -0.0077155
69.27 -0.00757635
69.28 -0.00727934
69.29 -0.00683237
69.3 -0.00624568
69.31 -0.00553207
69.32 -0.00470661
69.33 -0.00378626
69.34 -0.00278956
69.35 -0.00173494
69.36 -0.000644647
69.37 0.000457261
69.38 0.00154995
69.39 0.00261307
69.4 0.00362708
69.41 0.00457362
69.42 0.00543583
69.43 0.0061986
69.44 0.00683949
69.45 0.00735341
69.46 0.00773467
69.47 0.00797804
69.48 0.00808091
69.49 0.00804336
69.5 0.00786809
69.51 0.00756037
69.52 0.00712556
69.53 0.0065689
69.54 0.00591198
69.55 0.00516903
69.56 0.00435567
69.57 0.00348866
69.58 0.00258547
69.59 0.00166396
69.6 0.000741978
69.61 -0.000160898
69.62 -0.00102658
69.63 -0.00184033
69.64 -0.00258826
69.65 -0.0032582
69.66 -0.00383994
69.67 -0.00432543
69.68 -0.00470888
69.69 -0.00498629
69.7 -0.00514774
69.71 -0.00520442
69.72 -0.00516027
69.73 -0.0050212
69.74 -0.00479492
69.75 -0.00449068
69.76 -0.00411897
69.77 -0.00369126
69.78 -0.00321825
69.79 -0.00271374
69.8 -0.00219219
69.81 -0.00166552
69.82 -0.00114502
69.83 -0.000641043
69.84 -0.000162871
69.85 0.000281491
69.86 0.000685408
69.87 0.00103953
69.88 0.0013434
69.89 0.00159553
69.9 0.00179531
69.91 0.00194335
69.92 0.0020414
69.93 0.0020921
69.94 0.00209891
69.95 0.00206486
69.96 0.00199366
69.97 0.00189267
69.98 0.00176671
69.99 0.00162059
70 0.00145897
70.01 0.00128631
70.02 0.00110681
70.03 0.00092442
70.04 0.000743147
70.05 0.00056678
70.06 0.000398577
70.07 0.000241736
70.08 9.94204e-05
70.09 -2.51831e-05
70.1 -0.000128821
70.11 -0.000208147
70.12 -0.000259294
70.13 -0.000276272
70.14 -0.000257847
70.15 -0.000200587
70.16 -0.000101269
70.17 4.29722e-05
70.18 0.000234479
70.19 0.000474896
70.2 0.000764979
70.21 0.00110695
70.22 0.0014983
70.23 0.0019337
70.24 0.00240832
70.25 0.00291575
70.26 0.00344799
70.27 0.00399548
70.28 0.00454722
70.29 0.00509094
70.3 0.00561008
70.31 0.00609133
70.32 0.00652033
70.33 0.00688277
70.34 0.00716496
70.35 0.00735421
70.36 0.00743931
70.37 0.00741102
70.38 0.00725773
70.39 0.00697268
70.4 0.00656236
70.41 0.00602966
70.42 0.00538087
70.43 0.00462569
70.44 0.00377711
70.45 0.00285124
70.46 0.00186694
70.47 0.00084439
70.48 -0.00018874
70.49 -0.0012074
70.5 -0.00218679
70.51 -0.00310248
70.52 -0.00393114
70.53 -0.00465125
70.54 -0.00524382
70.55 -0.00568963
70.56 -0.00596782
70.57 -0.00608215
70.58 -0.00603038
70.59 -0.00581506
70.6 -0.0054435
70.61 -0.00492764
70.62 -0.00428379
70.63 -0.00353216
70.64 -0.00269278
70.65 -0.00179743
70.66 -0.000877071
70.67 3.93433e-05
70.68 0.000923106
70.69 0.00174669
70.7 0.00248469
70.71 0.00311463
70.72 0.00361694
70.73 0.00396485
70.74 0.0041617
70.75 0.00420478
70.76 0.0040969
70.77 0.00384631
70.78 0.00346648
70.79 0.00297567
70.8 0.00239629
70.81 0.00175271
70.82 0.00107702
70.83 0.000402155
70.84 -0.000241709
70.85 -0.000825392
70.86 -0.00132179
70.87 -0.00170693
70.88 -0.00196092
70.89 -0.00206877
70.9 -0.00200754
70.91 -0.00178643
70.92 -0.00141143
70.93 -0.000893449
70.94 -0.00024949
70.95 0.000497781
70.96 0.00132073
70.97 0.00218763
70.98 0.00306281
70.99 0.00390437
71 0.00467491
71.01 0.00533847
71.02 0.00586156
71.03 0.00621444
71.04 0.00637235
71.05 0.00631654
71.06 0.00603515
71.07 0.00550812
71.08 0.004751
71.09 0.00378323
71.1 0.00262642
71.11 0.00130961
71.12 -0.000131487
71.13 -0.00165543
71.14 -0.00321631
71.15 -0.00476412
71.16 -0.00623887
71.17 -0.00759191
71.18 -0.00877516
71.19 -0.00974434
71.2 -0.0104605
71.21 -0.0108916
71.22 -0.0110131
71.23 -0.01081
71.24 -0.0102588
71.25 -0.00937039
71.26 -0.008175
71.27 -0.00669929
71.28 -0.00497904
71.29 -0.00305816
71.3 -0.000987518
71.31 0.00117658
71.32 0.00337402
71.33 0.00553423
71.34 0.00759311
71.35 0.0094913
71.36 0.0111737
71.37 0.0125912
71.38 0.0137025
71.39 0.0144752
71.4 0.0148867
71.41 0.0149116
71.42 0.0145443
71.43 0.0138197
71.44 0.0127628
71.45 0.0114086
71.46 0.00980144
71.47 0.00799332
71.48 0.00604255
71.49 0.00401178
71.5 0.00197013
71.51 -1.0039e-05
71.52 -0.00186563
71.53 -0.00353792
71.54 -0.00497429
71.55 -0.00612986
71.56 -0.00696887
71.57 -0.00746584
71.58 -0.00759811
71.59 -0.00734609
71.6 -0.00674669
71.61 -0.00582218
71.62 -0.00460508
71.63 -0.00313703
71.64 -0.00146747
71.65 0.000348111
71.66 0.0022499
71.67 0.00417329
71.68 0.00604839
71.69 0.00781484
71.7 0.00941701
71.71 0.0108053
71.72 0.0119376
71.73 0.0127808
71.74 0.0133113
71.75 0.0135139
71.76 0.0133611
71.77 0.0128925
71.78 0.0121295
71.79 0.0111025
71.8 0.00985013
71.81 0.0084178
71.82 0.00685594
71.83 0.00521834
71.84 0.00356192
71.85 0.00194829
71.86 0.00042964
71.87 -0.000946984
71.88 -0.00214062
71.89 -0.00311768
71.9 -0.00385299
71.91 -0.00433052
71.92 -0.00454378
71.93 -0.00447451
71.94 -0.00415805
71.95 -0.00361974
71.96 -0.00289027
71.97 -0.00200662
71.98 -0.00101065
71.99 5.24945e-05
72 0.00113612
72.01 0.0021914
72.02 0.00316654
72.03 0.00402353
72.04 0.00472763
72.05 0.00525063
72.06 0.00557185
72.07 0.00567879
72.08 0.00556754
72.09 0.0052428
72.1 0.00470498
72.11 0.00398757
72.12 0.00312458
72.13 0.00215082
72.14 0.00110522
72.15 2.93768e-05
72.16 -0.00103404
72.17 -0.00204288
72.18 -0.00295508
72.19 -0.00372264
72.2 -0.0043235
72.21 -0.00473409
72.22 -0.00493811
72.23 -0.00492712
72.24 -0.00470082
72.25 -0.00426705
72.26 -0.00364142
72.27 -0.00283917
72.28 -0.00189634
72.29 -0.000854877
72.3 0.000246319
72.31 0.00136629
72.32 0.00246357
72.33 0.00349775
72.34 0.00443097
72.35 0.00522937
72.36 0.00584676
72.37 0.00627577
72.38 0.00650308
72.39 0.00652321
72.4 0.00633864
72.41 0.00595975
72.42 0.0054044
72.43 0.00469722
72.44 0.00386536
72.45 0.00294739
72.46 0.00198879
72.47 0.00102999
72.48 0.000111336
72.49 -0.000728499
72.5 -0.00145398
72.51 -0.0020341
72.52 -0.00244356
72.53 -0.00264794
72.54 -0.00264833
72.55 -0.00244644
72.56 -0.00204906
72.57 -0.00147086
72.58 -0.00073376
72.59 0.00013377
72.6 0.00109783
72.61 0.0021207
72.62 0.00315769
72.63 0.0041631
72.64 0.00509585
72.65 0.00591731
72.66 0.00659291
72.67 0.00709343
72.68 0.00739626
72.69 0.00748635
72.7 0.0073431
72.71 0.0069769
72.72 0.00640724
72.73 0.00565507
72.74 0.00474904
72.75 0.00372457
72.76 0.0026226
72.77 0.00148823
72.78 0.000369633
72.79 -0.000675008
72.8 -0.00160071
72.81 -0.00236366
72.82 -0.00292492
72.83 -0.00325184
72.84 -0.00331942
72.85 -0.00311135
72.86 -0.00262074
72.87 -0.00183787
72.88 -0.000778945
72.89 0.000518109
72.9 0.00201952
72.91 0.00368364
72.92 0.00546223
72.93 0.00730198
72.94 0.00914624
72.95 0.0109369
72.96 0.0126015
72.97 0.0140897
72.98 0.0153525
72.99 0.0163466
73 0.0170366
73.01 0.017396
73.02 0.0174087
73.03 0.017069
73.04 0.0163718
73.05 0.0153262
73.06 0.0139827
73.07 0.0123794
73.08 0.0105622
73.09 0.00858383
73.1 0.00650172
73.11 0.00437632
73.12 0.00226917
73.13 0.000250705
73.14 -0.00162
73.15 -0.00329336
73.16 -0.00472465
73.17 -0.00587732
73.18 -0.00672411
73.19 -0.00724781
73.2 -0.00744169
73.21 -0.00730449
73.22 -0.00683378
73.23 -0.00608091
73.24 -0.00508035
73.25 -0.00387368
73.26 -0.00250811
73.27 -0.00103477
73.28 0.000493095
73.29 0.00202197
73.3 0.00349425
73.31 0.00485712
73.32 0.00607061
73.33 0.0070993
73.34 0.00791561
73.35 0.0085006
73.36 0.00884447
73.37 0.00894673
73.38 0.00881578
73.39 0.00845131
73.4 0.00790172
73.41 0.00720018
73.42 0.00638491
73.43 0.00549763
73.44 0.00458196
73.45 0.00368169
73.46 0.00283914
73.47 0.00209892
73.48 0.00150109
73.49 0.00106733
73.5 0.000817724
73.51 0.000764488
73.52 0.000911572
73.53 0.00125456
73.54 0.0017809
73.55 0.0024704
73.56 0.00330423
73.57 0.00423694
73.58 0.00522851
73.59 0.00623822
73.6 0.00722434
73.61 0.00814564
73.62 0.00896305
73.63 0.00964111
73.64 0.0101445
73.65 0.0104384
73.66 0.0105198
73.67 0.0103812
73.68 0.0100239
73.69 0.00945702
73.7 0.00869805
73.71 0.00777175
73.72 0.00670945
73.73 0.0055443
73.74 0.00432551
73.75 0.00309987
73.76 0.00191191
73.77 0.000805191
73.78 -0.000179335
73.79 -0.00100479
73.8 -0.00163977
73.81 -0.00205733
73.82 -0.00222172
73.83 -0.00214475
73.84 -0.00182825
73.85 -0.00128275
73.86 -0.000527156
73.87 0.000411867
73.88 0.00150078
73.89 0.0027003
73.9 0.00396766
73.91 0.00524994
73.92 0.00649652
73.93 0.00766041
73.94 0.00869715
73.95 0.00956629
73.96 0.0102329
73.97 0.0106687
73.98 0.0108531
73.99 0.0107507
74 0.0103811
74.01 0.00975412
74.02 0.00888679
74.03 0.00780436
74.04 0.00653956
74.05 0.00513155
74.06 0.00362457
74.07 0.0020666
74.08 0.000513568
74.09 -0.000981643
74.1 -0.00237054
74.11 -0.00360795
74.12 -0.00465343
74.13 -0.00547266
74.14 -0.00603846
74.15 -0.00633173
74.16 -0.00632136
74.17 -0.00602142
74.18 -0.00544771
74.19 -0.00461834
74.2 -0.00355936
74.21 -0.00230383
74.22 -0.000890754
74.23 0.000636224
74.24 0.00223049
74.25 0.00383936
74.26 0.00540968
74.27 0.0068947
74.28 0.00825083
74.29 0.00943897
74.3 0.0104257
74.31 0.011184
74.32 0.0116942
74.33 0.0119294
74.34 0.0118912
74.35 0.011595
74.36 0.0110539
74.37 0.0102876
74.38 0.00932213
74.39 0.00818826
74.4 0.00692082
74.41 0.00555726
74.42 0.00413524
74.43 0.00270221
74.44 0.00129607
74.45 -4.76752e-05
74.46 -0.00129683
74.47 -0.00242336
74.48 -0.00340404
74.49 -0.00422089
74.5 -0.00485385
74.51 -0.00529373
74.52 -0.00554977
74.53 -0.00562678
74.54 -0.00553404
74.55 -0.00528475
74.56 -0.00489519
74.57 -0.00438403
74.58 -0.00377144
74.59 -0.00307353
74.6 -0.00231833
74.61 -0.00152666
74.62 -0.000716682
74.63 9.54405e-05
74.64 0.000895921
74.65 0.00167354
74.66 0.00241973
74.67 0.00312741
74.68 0.00379105
74.69 0.00441217
74.7 0.00499126
74.71 0.0055299
74.72 0.00603033
74.73 0.0064949
74.74 0.00692563
74.75 0.00732381
74.76 0.0076874
74.77 0.00801604
74.78 0.00830759
74.79 0.00855745
74.8 0.00875961
74.81 0.00890686
74.82 0.00899115
74.83 0.00900403
74.84 0.00893621
74.85 0.00877279
74.86 0.00851445
74.87 0.00815696
74.88 0.00769853
74.89 0.00714027
74.9 0.00648653
74.91 0.00574517
74.92 0.00492762
74.93 0.00404679
74.94 0.00312409
74.95 0.00218417
74.96 0.0012514
74.97 0.00035184
74.98 -0.000487562
74.99 -0.00123979
75 -0.0018787
75.01 -0.00237996
75.02 -0.00270617
75.03 -0.00285194
75.04 -0.00280582
75.05 -0.00256077
75.06 -0.00211552
75.07 -0.0014749
75.08 -0.000649924
75.09 0.000342245
75.1 0.00148254
75.11 0.00274176
75.12 0.00407756
75.13 0.00545266
75.14 0.00682742
75.15 0.00816099
75.16 0.00941265
75.17 0.010543
75.18 0.0115154
75.19 0.0122809
75.2 0.0128199
75.21 0.0131164
75.22 0.0131572
75.23 0.0129369
75.24 0.0124578
75.25 0.0117302
75.26 0.0107723
75.27 0.00960612
75.28 0.00825779
75.29 0.00678131
75.3 0.00521961
75.31 0.00361846
75.32 0.00202507
75.33 0.000486544
75.34 -0.000951574
75.35 -0.00224681
75.36 -0.00334871
75.37 -0.00422602
75.38 -0.00486174
75.39 -0.00523996
75.4 -0.00535311
75.41 -0.00520228
75.42 -0.00479716
75.43 -0.00415575
75.44 -0.00330329
75.45 -0.00226038
75.46 -0.00108556
75.47 0.000177335
75.48 0.00148172
75.49 0.00277984
75.5 0.00402437
75.51 0.00516997
75.52 0.0061748
75.53 0.00699307
75.54 0.00758911
75.55 0.00795076
75.56 0.00806457
75.57 0.0079257
75.58 0.0075381
75.59 0.00691439
75.6 0.00607543
75.61 0.00504962
75.62 0.00386287
75.63 0.00257051
75.64 0.00121956
75.65 -0.000142648
75.66 -0.00146826
75.67 -0.00271046
75.68 -0.00382503
75.69 -0.00477187
75.7 -0.00551007
75.71 -0.00599985
75.72 -0.00623664
75.73 -0.00621022
75.74 -0.00591905
75.75 -0.00537033
75.76 -0.00457973
75.77 -0.00357085
75.78 -0.00237448
75.79 -0.00102039
75.8 0.000438841
75.81 0.00195322
75.82 0.00347529
75.83 0.0049576
75.84 0.00635418
75.85 0.00762211
75.86 0.00872285
75.87 0.00962089
75.88 0.0102718
75.89 0.0106758
75.9 0.010824
75.91 0.0107161
75.92 0.01036
75.93 0.00977138
75.94 0.0089734
75.95 0.00799568
75.96 0.00686805
75.97 0.00563624
75.98 0.00434909
75.99 0.00305044
76 0.00178379
76.01 0.000590888
76.02 -0.000489571
76.03 -0.00142319
76.04 -0.00218093
76.05 -0.00272058
76.06 -0.00304316
76.07 -0.00314263
76.08 -0.00301952
76.09 -0.00268167
76.1 -0.00214378
76.11 -0.00142686
76.12 -0.000557411
76.13 0.000436557
76.14 0.00151831
76.15 0.00264393
76.16 0.0037758
76.17 0.00487692
76.18 0.00591203
76.19 0.00684876
76.2 0.00765856
76.21 0.00831758
76.22 0.00879365
76.23 0.00908295
76.24 0.00918359
76.25 0.0090963
76.26 0.00882763
76.27 0.00838954
76.28 0.00779883
76.29 0.00707643
76.3 0.006245
76.31 0.00532973
76.32 0.00436657
76.33 0.00338393
76.34 0.00240943
76.35 0.00146912
76.36 0.000586619
76.37 -0.000217476
76.38 -0.000926151
76.39 -0.0015194
76.4 -0.00199046
76.41 -0.00233957
76.42 -0.00256712
76.43 -0.0026773
76.44 -0.00267772
76.45 -0.00257883
76.46 -0.00239341
76.47 -0.00213568
76.48 -0.00181773
76.49 -0.00146161
76.5 -0.00108263
76.51 -0.00069506
76.52 -0.000311704
76.53 5.65193e-05
76.54 0.000400838
76.55 0.000714783
76.56 0.00099266
76.57 0.0012324
76.58 0.00143652
76.59 0.00160748
76.6 0.00174914
76.61 0.00186631
76.62 0.00196434
76.63 0.00204868
76.64 0.00212439
76.65 0.00219573
76.66 0.00226635
76.67 0.00233784
76.68 0.00241023
76.69 0.00248194
76.7 0.00254987
76.71 0.00260955
76.72 0.00265537
76.73 0.00268015
76.74 0.00267527
76.75 0.00263548
76.76 0.00255478
76.77 0.00242832
76.78 0.00225283
76.79 0.00202703
76.8 0.00175197
76.81 0.00143128
76.82 0.00106927
76.83 0.00067796
76.84 0.000270668
76.85 -0.000138011
76.86 -0.000531571
76.87 -0.000892084
76.88 -0.0012008
76.89 -0.00143883
76.9 -0.00158652
76.91 -0.00161793
76.92 -0.00152635
76.93 -0.00130049
76.94 -0.000932718
76.95 -0.000419563
76.96 0.000237848
76.97 0.00103352
76.98 0.00195649
76.99 0.00299552
77 0.00412586
77.01 0.00531707
77.02 0.00653989
77.03 0.00776233
77.04 0.00895058
77.05 0.01007
77.06 0.0110864
77.07 0.0119666
77.08 0.0126626
77.09 0.0131606
77.1 0.0134403
77.11 0.013486
77.12 0.0132889
77.13 0.0128466
77.14 0.012164
77.15 0.0112534
77.16 0.0101273
77.17 0.00881143
77.18 0.00735103
77.19 0.00578433
77.2 0.0041535
77.21 0.00250343
77.22 0.000880405
77.23 -0.000669241
77.24 -0.00210057
77.25 -0.00335638
77.26 -0.00440489
77.27 -0.0052181
77.28 -0.00577166
77.29 -0.00604878
77.3 -0.00604089
77.31 -0.00574801
77.32 -0.00517885
77.33 -0.00434591
77.34 -0.00326569
77.35 -0.00199157
77.36 -0.000564192
77.37 0.000970775
77.38 0.00256401
77.39 0.00416401
77.4 0.00571867
77.41 0.00717688
77.42 0.00847865
77.43 0.00957892
77.44 0.0104455
77.45 0.0110482
77.46 0.0113647
77.47 0.0113814
77.48 0.0110942
77.49 0.0105081
77.5 0.00963648
77.51 0.00848373
77.52 0.00710855
77.53 0.00555149
77.54 0.0038589
77.55 0.00208154
77.56 0.000273062
77.57 -0.00151162
77.58 -0.00321801
77.59 -0.00478557
77.6 -0.00615897
77.61 -0.00730297
77.62 -0.00818222
77.63 -0.0087693
77.64 -0.00904545
77.65 -0.00900121
77.66 -0.00863663
77.67 -0.00796132
77.68 -0.00697197
77.69 -0.00572121
77.7 -0.00424909
77.71 -0.00259898
77.72 -0.000819351
77.73 0.00103772
77.74 0.0029181
77.75 0.00476719
77.76 0.00652759
77.77 0.00813832
77.78 0.00956029
77.79 0.0107543
77.8 0.011688
77.81 0.0123371
77.82 0.0126859
77.83 0.0127273
77.84 0.0124637
77.85 0.0118871
77.86 0.0110326
77.87 0.00993676
77.88 0.00863488
77.89 0.00716777
77.9 0.00558037
77.91 0.00392034
77.92 0.00223665
77.93 0.000579104
77.94 -0.00099563
77.95 -0.00244696
77.96 -0.0037362
77.97 -0.00483029
77.98 -0.00570264
77.99 -0.00633384
78 -0.00671206
78.01 -0.00683327
78.02 -0.00668843
78.03 -0.00629391
78.04 -0.00567998
78.05 -0.00487248
78.06 -0.00390239
78.07 -0.00280483
78.08 -0.00161789
78.09 -0.000381436
78.1 0.000864151
78.11 0.00207286
78.12 0.00320707
78.13 0.00423296
78.14 0.00512084
78.15 0.005846
78.16 0.00638939
78.17 0.00673801
78.18 0.00688518
78.19 0.00682335
78.2 0.00655596
78.21 0.00610775
78.22 0.00549713
78.23 0.00474708
78.24 0.00388432
78.25 0.00293845
78.26 0.00194093
78.27 0.000924158
78.28 -7.61638e-05
78.29 -0.00102688
78.3 -0.00189973
78.31 -0.00266918
78.32 -0.00331346
78.33 -0.00381509
78.34 -0.00416132
78.35 -0.0043444
78.36 -0.00435822
78.37 -0.00419769
78.38 -0.00388345
78.39 -0.0034285
78.4 -0.00284981
78.41 -0.00216779
78.42 -0.00140558
78.43 -0.000588311
78.44 0.000257644
78.45 0.00110392
78.46 0.00192115
78.47 0.00268441
78.48 0.00337074
78.49 0.00395977
78.5 0.00443427
78.51 0.00478056
78.52 0.00498881
78.53 0.00505241
78.54 0.00495801
78.55 0.00472186
78.56 0.00435134
78.57 0.00385743
78.58 0.00325438
78.59 0.00255923
78.6 0.00179131
78.61 0.000971684
78.62 0.000122286
78.63 -0.000731273
78.64 -0.00156517
78.65 -0.00235771
78.66 -0.00308856
78.67 -0.00373926
78.68 -0.00429362
78.69 -0.00473811
78.7 -0.00506214
78.71 -0.00524704
78.72 -0.00529842
78.73 -0.0052174
78.74 -0.00500709
78.75 -0.00467364
78.76 -0.00422608
78.77 -0.00367598
78.78 -0.00303715
78.79 -0.00232361
78.8 -0.00155261
78.81 -0.000746949
78.82 7.47e-05
78.83 0.000893705
78.84 0.00169189
78.85 0.00245194
78.86 0.00315777
78.87 0.0037949
78.88 0.00434428
78.89 0.00479823
78.9 0.00515113
78.91 0.00539771
78.92 0.00553517
78.93 0.00556313
78.94 0.00548362
78.95 0.0053009
78.96 0.00502006
78.97 0.00464448
78.98 0.00419198
78.99 0.00367397
79 0.00310277
79.01 0.00249133
79.02 0.00185289
79.03 0.0012007
79.04 0.000547663
79.05 -9.2631e-05
79.06 -0.00070761
79.07 -0.0012877
79.08 -0.00182411
79.09 -0.00230946
79.1 -0.00273794
79.11 -0.00310526
79.12 -0.00340875
79.13 -0.00364724
79.14 -0.00381516
79.15 -0.00392042
79.16 -0.00396618
79.17 -0.0039565
79.18 -0.00389618
79.19 -0.00379062
79.2 -0.00364556
79.21 -0.0034669
79.22 -0.00325968
79.23 -0.00302978
79.24 -0.00278387
79.25 -0.00252657
79.26 -0.00226185
79.27 -0.00199302
79.28 -0.00172267
79.29 -0.00145269
79.3 -0.00118433
79.31 -0.000918423
79.32 -0.000654987
79.33 -0.000393752
79.34 -0.000134316
79.35 0.000123742
79.36 0.00038072
79.37 0.000636639
79.38 0.000891113
79.39 0.00114315
79.4 0.00139078
79.41 0.00163185
79.42 0.00186329
79.43 0.00208137
79.44 0.00228173
79.45 0.0024595
79.46 0.0026094
79.47 0.00272592
79.48 0.00280076
79.49 0.0028291
79.5 0.00280737
79.51 0.00273137
79.52 0.00259779
79.53 0.00240445
79.54 0.00215043
79.55 0.0018363
79.56 0.00146377
79.57 0.00103277
79.58 0.000554143
79.59 3.53155e-05
79.6 -0.000514768
79.61 -0.00108579
79.62 -0.00166628
79.63 -0.00224383
79.64 -0.00280541
79.65 -0.00333568
79.66 -0.00381963
79.67 -0.00424603
79.68 -0.00460303
79.69 -0.00488002
79.7 -0.00506795
79.71 -0.00515961
79.72 -0.00514991
79.73 -0.00503608
79.74 -0.00480902
79.75 -0.00447964
79.76 -0.00405419
79.77 -0.00354049
79.78 -0.00294863
79.79 -0.0022908
79.8 -0.00158095
79.81 -0.000834524
79.82 -6.79713e-05
79.83 0.000699597
79.84 0.00144968
79.85 0.00216525
79.86 0.00283004
79.87 0.003429
79.88 0.00394866
79.89 0.00437748
79.9 0.00470611
79.91 0.00491983
79.92 0.00501928
79.93 0.00500611
79.94 0.00488208
79.95 0.00465153
79.96 0.0043213
79.97 0.00390046
79.98 0.00340005
79.99 0.00283197
80 0.00220843
80.01 0.00154962
80.02 0.000871004
80.03 0.000188063
80.04 -0.000484102
80.05 -0.00113112
80.06 -0.00173969
80.07 -0.00229783
80.08 -0.00279133
80.09 -0.00321167
80.1 -0.00355499
80.11 -0.00381694
80.12 -0.00399504
80.13 -0.00408872
80.14 -0.00409913
80.15 -0.00402903
80.16 -0.0038826
80.17 -0.00365913
80.18 -0.00337227
80.19 -0.00302928
80.2 -0.00263789
80.21 -0.00220604
80.22 -0.00174178
80.23 -0.00125307
80.24 -0.000747629
80.25 -0.000232802
80.26 0.000283595
80.27 0.000794572
80.28 0.001294
80.29 0.00177612
80.3 0.0022355
80.31 0.00266694
80.32 0.00306547
80.33 0.00342619
80.34 0.00374059
80.35 0.0040061
80.36 0.00421865
80.37 0.00437351
80.38 0.00446601
80.39 0.00449167
80.4 0.00444627
80.41 0.004326
80.42 0.00412575
80.43 0.00383907
80.44 0.00347031
80.45 0.00301944
80.46 0.00248784
80.47 0.00187847
80.48 0.00119595
80.49 0.000446741
80.5 -0.000360867
80.51 -0.00121901
80.52 -0.00211266
80.53 -0.00302643
80.54 -0.00394499
80.55 -0.00485193
80.56 -0.00573003
80.57 -0.00656168
80.58 -0.00732929
80.59 -0.00801496
80.6 -0.00859342
80.61 -0.00905758
80.62 -0.00939513
80.63 -0.00959616
80.64 -0.00965355
80.65 -0.00956328
80.66 -0.00932465
80.67 -0.00894042
80.68 -0.00841077
80.69 -0.00774719
80.7 -0.00696999
80.71 -0.00609594
80.72 -0.00514436
80.73 -0.00413668
80.74 -0.0030959
80.75 -0.00204598
80.76 -0.00101121
80.77 -2.09043e-05
80.78 0.000903427
80.79 0.00174141
80.8 0.00247481
80.81 0.00308838
80.82 0.00357031
80.83 0.0039126
80.84 0.00411127
80.85 0.00416207
80.86 0.00406607
80.87 0.0038415
80.88 0.00350129
80.89 0.00306161
80.9 0.00254136
80.91 0.00196158
80.92 0.00134472
80.93 0.000713987
80.94 9.48262e-05
80.95 -0.000488778
80.96 -0.00101676
80.97 -0.00147118
80.98 -0.00183709
80.99 -0.00210299
81 -0.0022613
81.01 -0.00230851
81.02 -0.00224368
81.03 -0.00206624
81.04 -0.00179479
81.05 -0.00144295
81.06 -0.00102756
81.07 -0.000568072
81.08 -8.58859e-05
81.09 0.000396362
81.1 0.0008556
81.11 0.00126533
81.12 0.00160247
81.13 0.0018499
81.14 0.00199144
81.15 0.00201436
81.16 0.00190982
81.17 0.00167327
81.18 0.00130468
81.19 0.000808517
81.2 0.000184085
81.21 -0.000542423
81.22 -0.00135289
81.23 -0.00222592
81.24 -0.00313753
81.25 -0.00406182
81.26 -0.00497184
81.27 -0.00584038
81.28 -0.00663708
81.29 -0.00733267
81.3 -0.0079089
81.31 -0.00834682
81.32 -0.00863128
81.33 -0.00875147
81.34 -0.0087012
81.35 -0.00847922
81.36 -0.00808919
81.37 -0.00752801
81.38 -0.00682107
81.39 -0.00598902
81.4 -0.0050537
81.41 -0.0040398
81.42 -0.00297417
81.43 -0.00188498
81.44 -0.000800867
81.45 0.00024836
81.46 0.00123011
81.47 0.00212257
81.48 0.00290422
81.49 0.00355703
81.5 0.004067
81.51 0.00442443
81.52 0.0046242
81.53 0.0046658
81.54 0.00454395
81.55 0.00427369
81.56 0.00387289
81.57 0.00335807
81.58 0.0027485
81.59 0.00206554
81.6 0.00133188
81.61 0.000570861
81.62 -0.000194156
81.63 -0.000937359
81.64 -0.00163839
81.65 -0.00227924
81.66 -0.00284467
81.67 -0.00332261
81.68 -0.00370443
81.69 -0.0039851
81.7 -0.00416314
81.71 -0.004236
81.72 -0.00421029
81.73 -0.00409949
81.74 -0.00391485
81.75 -0.00366948
81.76 -0.00337782
81.77 -0.003055
81.78 -0.00271632
81.79 -0.00237662
81.8 -0.00205197
81.81 -0.00175445
81.82 -0.00149393
81.83 -0.00127809
81.84 -0.00111211
81.85 -0.000998618
81.86 -0.00093762
81.87 -0.00092667
81.88 -0.000962305
81.89 -0.00103794
81.9 -0.00114222
81.91 -0.00126544
81.92 -0.00139734
81.93 -0.00152754
81.94 -0.00164604
81.95 -0.00174369
81.96 -0.00181258
81.97 -0.00184362
81.98 -0.00183411
81.99 -0.00178322
82 -0.0016916
82.01 -0.00156217
82.02 -0.00140007
82.03 -0.00121248
82.04 -0.0010083
82.05 -0.000797979
82.06 -0.000594438
82.07 -0.000410018
82.08 -0.000256663
82.09 -0.000145802
82.1 -8.78771e-05
82.11 -9.19059e-05
82.12 -0.000165092
82.13 -0.000312497
82.14 -0.000541153
82.15 -0.000849328
82.16 -0.00123093
82.17 -0.00168018
82.18 -0.00218882
82.19 -0.00274639
82.2 -0.00334046
82.21 -0.00395711
82.22 -0.00458124
82.23 -0.00519493
82.24 -0.00578198
82.25 -0.0063272
82.26 -0.00681644
82.27 -0.00723706
82.28 -0.00757833
82.29 -0.00783182
82.3 -0.00799162
82.31 -0.0080506
82.32 -0.00800761
82.33 -0.00787107
82.34 -0.00764692
82.35 -0.00734364
82.36 -0.00697193
82.37 -0.00654434
82.38 -0.0060749
82.39 -0.00557861
82.4 -0.00507131
82.41 -0.00457057
82.42 -0.00409124
82.43 -0.00364694
82.44 -0.00324967
82.45 -0.00290955
82.46 -0.00263445
82.47 -0.00242978
82.48 -0.00230025
82.49 -0.00224893
82.5 -0.00226771
82.51 -0.00235113
82.52 -0.00249153
82.53 -0.00267937
82.54 -0.00290357
82.55 -0.00315195
82.56 -0.00341162
82.57 -0.00366855
82.58 -0.00390867
82.59 -0.00412022
82.6 -0.00429257
82.61 -0.0044167
82.62 -0.00448551
82.63 -0.00449402
82.64 -0.00443961
82.65 -0.00432141
82.66 -0.0041375
82.67 -0.00389825
82.68 -0.00361079
82.69 -0.00328416
82.7 -0.00292895
82.71 -0.00255698
82.72 -0.0021809
82.73 -0.00181377
82.74 -0.0014704
82.75 -0.00116476
82.76 -0.000907296
82.77 -0.000708143
82.78 -0.000575795
82.79 -0.000516802
82.8 -0.000535562
82.81 -0.000634169
82.82 -0.000812326
82.83 -0.00107372
82.84 -0.00140612
82.85 -0.00180135
82.86 -0.0022497
82.87 -0.00273977
82.88 -0.00325877
82.89 -0.00379285
82.9 -0.00432746
82.91 -0.00484677
82.92 -0.00533357
82.93 -0.00577479
82.94 -0.00615732
82.95 -0.00646934
82.96 -0.00670067
82.97 -0.00684296
82.98 -0.00688997
82.99 -0.00683771
83 -0.00667723
83.01 -0.00641509
83.02 -0.00605723
83.03 -0.00560983
83.04 -0.0050813
83.05 -0.00448211
83.06 -0.00382459
83.07 -0.00312264
83.08 -0.00239129
83.09 -0.0016478
83.1 -0.000911161
83.11 -0.000198518
83.12 0.000473165
83.13 0.00108747
83.14 0.00162887
83.15 0.00208311
83.16 0.0024375
83.17 0.00267434
83.18 0.00278666
83.19 0.00277292
83.2 0.00263014
83.21 0.0023581
83.22 0.00195943
83.23 0.00143963
83.24 0.000807034
83.25 7.24953e-05
83.26 -0.0007566
83.27 -0.00165453
83.28 -0.00260272
83.29 -0.00358093
83.3 -0.00456765
83.31 -0.00554056
83.32 -0.006477
83.33 -0.00735447
83.34 -0.00814683
83.35 -0.00883012
83.36 -0.00939036
83.37 -0.00981163
83.38 -0.0100808
83.39 -0.0101882
83.4 -0.0101274
83.41 -0.0098962
83.42 -0.00949635
83.43 -0.00892134
83.44 -0.00819405
83.45 -0.00733167
83.46 -0.00635307
83.47 -0.0052805
83.48 -0.00413916
83.49 -0.00295662
83.5 -0.00176222
83.51 -0.000587686
83.52 0.000530905
83.53 0.00156526
83.54 0.0024871
83.55 0.00327049
83.56 0.00389261
83.57 0.00433445
83.58 0.00458142
83.59 0.00462388
83.6 0.0044438
83.61 0.0040513
83.62 0.00346066
83.63 0.00268582
83.64 0.00174605
83.65 0.000665585
83.66 -0.000526964
83.67 -0.00179931
83.68 -0.00311634
83.69 -0.00443762
83.7 -0.00572182
83.71 -0.0069313
83.72 -0.00802987
83.73 -0.0089839
83.74 -0.00976332
83.75 -0.0103425
83.76 -0.0107011
83.77 -0.0108124
83.78 -0.0106701
83.79 -0.0102851
83.8 -0.00966491
83.81 -0.00882406
83.82 -0.00778349
83.83 -0.00657025
83.84 -0.00521676
83.85 -0.00375996
83.86 -0.00223856
83.87 -0.00070461
83.88 0.00079747
83.89 0.00222389
83.9 0.00353247
83.91 0.00468388
83.92 0.00564275
83.93 0.00637875
83.94 0.00685813
83.95 0.00705532
83.96 0.00697645
83.97 0.00662025
83.98 0.00599309
83.99 0.0051088
84 0.00398822
84.01 0.0026587
84.02 0.0011532
84.03 -0.000497718
84.04 -0.00224075
84.05 -0.00402913
84.06 -0.005818
84.07 -0.007563
84.08 -0.00922153
84.09 -0.0107539
84.1 -0.0121246
84.11 -0.0132988
84.12 -0.0142377
84.13 -0.0149394
84.14 -0.0153943
84.15 -0.0155996
84.16 -0.0155599
84.17 -0.015286
84.18 -0.0147951
84.19 -0.01411
84.2 -0.01325
84.21 -0.0122537
84.22 -0.0111608
84.23 -0.0100063
84.24 -0.00882476
84.25 -0.00764987
84.26 -0.0065128
84.27 -0.00544151
84.28 -0.00446028
84.29 -0.00359896
84.3 -0.00286157
84.31 -0.00225498
84.32 -0.00178045
84.33 -0.00143374
84.34 -0.00120557
84.35 -0.00108207
84.36 -0.00104555
84.37 -0.00107716
84.38 -0.00115146
84.39 -0.00124134
84.4 -0.00132319
84.41 -0.00137468
84.42 -0.00137572
84.43 -0.00130927
84.44 -0.00116217
84.45 -0.000925608
84.46 -0.000588018
84.47 -0.000158043
84.48 0.000355831
84.49 0.000941397
84.5 0.00158202
84.51 0.00225724
84.52 0.00294347
84.53 0.00361491
84.54 0.00424248
84.55 0.00479307
84.56 0.00524355
84.57 0.0055698
84.58 0.00575077
84.59 0.00576931
84.6 0.00561295
84.61 0.0052744
84.62 0.00475203
84.63 0.00403868
84.64 0.00315347
84.65 0.00211829
84.66 0.000955259
84.67 -0.000309031
84.68 -0.00164428
84.69 -0.0030174
84.7 -0.00439354
84.71 -0.00573632
84.72 -0.00700243
84.73 -0.00816207
84.74 -0.00918516
84.75 -0.0100455
84.76 -0.0107216
84.77 -0.0111972
84.78 -0.011462
84.79 -0.011512
84.8 -0.0113386
84.81 -0.0109538
84.82 -0.0103823
84.83 -0.00964464
84.84 -0.00876594
84.85 -0.00777496
84.86 -0.00670311
84.87 -0.0055834
84.88 -0.00444941
84.89 -0.00333874
84.9 -0.00228328
84.91 -0.00131098
84.92 -0.000446157
84.93 0.000291281
84.94 0.000886352
84.95 0.00132938
84.96 0.00161616
84.97 0.00174265
84.98 0.00171337
84.99 0.00154981
85 0.00126853
85.01 0.000889436
85.02 0.000435007
85.03 -7.06588e-05
85.04 -0.000602778
85.05 -0.00113685
85.06 -0.00164632
85.07 -0.00210953
85.08 -0.00250935
85.09 -0.00283185
85.1 -0.00306719
85.11 -0.0032099
85.12 -0.00325902
85.13 -0.003218
85.14 -0.00309309
85.15 -0.00289354
85.16 -0.00264077
85.17 -0.00235257
85.18 -0.0020483
85.19 -0.00174814
85.2 -0.00147212
85.21 -0.00123933
85.22 -0.00106711
85.23 -0.000975497
85.24 -0.000975085
85.25 -0.00107025
85.26 -0.00126395
85.27 -0.00155489
85.28 -0.00193752
85.29 -0.00240224
85.3 -0.00293573
85.31 -0.0035216
85.32 -0.00414141
85.33 -0.00476937
85.34 -0.00538328
85.35 -0.00596094
85.36 -0.00648104
85.37 -0.00692396
85.38 -0.00727259
85.39 -0.00751298
85.4 -0.00762939
85.41 -0.00761484
85.42 -0.00747483
85.43 -0.0072134
85.44 -0.00683897
85.45 -0.00636414
85.46 -0.00580519
85.47 -0.00518149
85.48 -0.00451482
85.49 -0.00382899
85.5 -0.00315165
85.51 -0.0025067
85.52 -0.00191652
85.53 -0.00140133
85.54 -0.000978412
85.55 -0.000661455
85.56 -0.00046002
85.57 -0.000382623
85.58 -0.000433582
85.59 -0.000599398
85.6 -0.000870033
85.61 -0.0012313
85.62 -0.00166539
85.63 -0.00215157
85.64 -0.0026669
85.65 -0.0031872
85.66 -0.0036849
85.67 -0.00413452
85.68 -0.00451476
85.69 -0.00480634
85.7 -0.00499343
85.71 -0.00506421
85.72 -0.00501141
85.73 -0.00483264
85.74 -0.00452901
85.75 -0.0041015
85.76 -0.0035735
85.77 -0.0029626
85.78 -0.00228993
85.79 -0.00157943
85.8 -0.000856947
85.81 -0.00014928
85.82 0.000516804
85.83 0.00111077
85.84 0.00160712
85.85 0.00198898
85.86 0.00224045
85.87 0.00235026
85.88 0.00231223
85.89 0.00212553
85.9 0.0017948
85.91 0.00133002
85.92 0.000737091
85.93 4.84727e-05
85.94 -0.000711352
85.95 -0.00151542
85.96 -0.00233497
85.97 -0.00314049
85.98 -0.00390279
85.99 -0.00459412
86 -0.00518479
86.01 -0.00564842
86.02 -0.00597434
86.03 -0.00615133
86.04 -0.00617379
86.05 -0.00604199
86.06 -0.00576214
86.07 -0.00534622
86.08 -0.0048116
86.09 -0.00417511
86.1 -0.00347162
86.11 -0.00273267
86.12 -0.00198983
86.13 -0.00127524
86.14 -0.000620439
86.15 -5.51632e-05
86.16 0.000393774
86.17 0.000700145
86.18 0.000836501
86.19 0.000802361
86.2 0.000593097
86.21 0.000210616
86.22 -0.00033661
86.23 -0.00103375
86.24 -0.00186006
86.25 -0.00278954
86.26 -0.00379409
86.27 -0.00483376
86.28 -0.00586996
86.29 -0.00686583
86.3 -0.00778523
86.31 -0.00859404
86.32 -0.0092614
86.33 -0.00976084
86.34 -0.0100701
86.35 -0.0101567
86.36 -0.0100314
86.37 -0.00969506
86.38 -0.00915602
86.39 -0.00842963
86.4 -0.00753789
86.41 -0.00650873
86.42 -0.00537512
86.43 -0.00417277
86.44 -0.00294641
86.45 -0.00174008
86.46 -0.000594238
86.47 0.000452541
86.48 0.00136494
86.49 0.00211215
86.5 0.00266897
86.51 0.00301673
86.52 0.00312499
86.53 0.00300747
86.54 0.0026723
86.55 0.00213315
86.56 0.00141091
86.57 0.000533039
86.58 -0.000467392
86.59 -0.00155282
86.6 -0.00268245
86.61 -0.00380886
86.62 -0.00488695
86.63 -0.00587575
86.64 -0.00673738
86.65 -0.00743841
86.66 -0.00795108
86.67 -0.00825426
86.68 -0.0083343
86.69 -0.0081699
86.7 -0.00777517
86.71 -0.00716863
86.72 -0.00637073
86.73 -0.00540901
86.74 -0.00431714
86.75 -0.00313381
86.76 -0.0019014
86.77 -0.000665134
86.78 0.000522373
86.79 0.00161746
86.8 0.00257914
86.81 0.00337077
86.82 0.00396138
86.83 0.00432674
86.84 0.0044503
86.85 0.0043238
86.86 0.00393478
86.87 0.00329779
86.88 0.00244252
86.89 0.00139621
86.9 0.000192914
86.91 -0.0011276
86.92 -0.00252114
86.93 -0.00394061
86.94 -0.00533756
86.95 -0.00665291
86.96 -0.00784375
86.97 -0.00886855
86.98 -0.00969098
86.99 -0.0102812
87 -0.0106169
87.01 -0.0106841
87.02 -0.0104776
87.03 -0.00999121
87.04 -0.00923526
87.05 -0.0082477
87.06 -0.00705865
87.07 -0.00570462
87.08 -0.00422721
87.09 -0.00267173
87.1 -0.00108564
87.11 0.000483077
87.12 0.00197903
87.13 0.00335827
87.14 0.00458313
87.15 0.00562061
87.16 0.00644458
87.17 0.0070366
87.18 0.00738647
87.19 0.00749252
87.2 0.00735659
87.21 0.00698504
87.22 0.00641892
87.23 0.00568859
87.24 0.00482956
87.25 0.00388108
87.26 0.00288473
87.27 0.00188278
87.28 0.000916686
87.29 3.23386e-05
87.3 -0.000734057
87.31 -0.00135659
87.32 -0.00181333
87.33 -0.00208977
87.34 -0.00217933
87.35 -0.00208366
87.36 -0.00181258
87.37 -0.00138284
87.38 -0.000811614
87.39 -0.000144899
87.4 0.000580087
87.41 0.00132274
87.42 0.00204061
87.43 0.00269099
87.44 0.00323259
87.45 0.00362712
87.46 0.00383118
87.47 0.00381391
87.48 0.00356552
87.49 0.00307561
87.5 0.0023427
87.51 0.00137457
87.52 0.000188216
87.53 -0.00119048
87.54 -0.00272737
87.55 -0.00438692
87.56 -0.00610769
87.57 -0.0078357
87.58 -0.00951548
87.59 -0.0110908
87.6 -0.0125064
87.61 -0.0137101
87.62 -0.0146544
87.63 -0.0152876
87.64 -0.0155626
87.65 -0.0154769
87.66 -0.0150187
87.67 -0.0141874
87.68 -0.012993
87.69 -0.0114568
87.7 -0.00961055
87.71 -0.00749588
87.72 -0.00515185
87.73 -0.00265291
87.74 -6.8579e-05
87.75 0.0025334
87.76 0.00508383
87.77 0.00751407
87.78 0.00975806
87.79 0.0117542
87.8 0.0134419
87.81 0.0147474
87.82 0.0156599
87.83 0.0161547
87.84 0.0162186
87.85 0.0158502
87.86 0.01506
87.87 0.0138701
87.88 0.0123138
87.89 0.0104193
87.9 0.00825067
87.91 0.00588104
87.92 0.00337596
87.93 0.00080412
87.94 -0.00176464
87.95 -0.00426126
87.96 -0.00661945
87.97 -0.00877748
87.98 -0.0106514
87.99 -0.0122153
88 -0.013433
88.01 -0.0142786
88.02 -0.0147368
88.03 -0.0148034
88.04 -0.0144853
88.05 -0.0138
88.06 -0.0127631
88.07 -0.0114113
88.08 -0.00980915
88.09 -0.00800829
88.1 -0.00606472
88.11 -0.0040371
88.12 -0.00198501
88.13 3.2853e-05
88.14 0.00196024
88.15 0.0037301
88.16 0.00530127
88.17 0.00663799
88.18 0.00771004
88.19 0.00849581
88.2 0.0089827
88.21 0.00916725
88.22 0.00905501
88.23 0.00865408
88.24 0.00797738
88.25 0.00707557
88.26 0.00598503
88.27 0.00474665
88.28 0.00340441
88.29 0.002004
88.3 0.000591439
88.31 -0.000788365
88.32 -0.00208567
88.33 -0.00326029
88.34 -0.00428192
88.35 -0.00512355
88.36 -0.00576468
88.37 -0.00619173
88.38 -0.00639831
88.39 -0.00638517
88.4 -0.00615852
88.41 -0.00571906
88.42 -0.00510655
88.43 -0.00434743
88.44 -0.00347213
88.45 -0.00251404
88.46 -0.00150837
88.47 -0.000491049
88.48 0.0005024
88.49 0.00143371
88.5 0.00226782
88.51 0.00298073
88.52 0.00354995
88.53 0.00395815
88.54 0.00419354
88.55 0.00425018
88.56 0.00412809
88.57 0.00383316
88.58 0.00336437
88.59 0.00275338
88.6 0.00202378
88.61 0.00120161
88.62 0.000315828
88.63 -0.00060263
88.64 -0.00152177
88.65 -0.00240954
88.66 -0.0032318
88.67 -0.00395324
88.68 -0.00455223
88.69 -0.00500662
88.7 -0.00529859
88.71 -0.00541517
88.72 -0.00534862
88.73 -0.00509663
88.74 -0.00466241
88.75 -0.00404327
88.76 -0.00326347
88.77 -0.00234669
88.78 -0.00131667
88.79 -0.000200545
88.8 0.000971891
88.81 0.00216906
88.82 0.00335848
88.83 0.00450652
88.84 0.00557405
88.85 0.00653556
88.86 0.00736492
88.87 0.00803965
88.88 0.00854161
88.89 0.00885749
88.9 0.00897924
88.91 0.00890431
88.92 0.00862548
88.93 0.00815635
88.94 0.00751954
88.95 0.00673502
88.96 0.005827
88.97 0.00482332
88.98 0.00375464
88.99 0.00265359
89 0.00155383
89.01 0.000495492
89.02 -0.000489684
89.03 -0.00137142
89.04 -0.0021225
89.05 -0.00271956
89.06 -0.00314384
89.07 -0.00338178
89.08 -0.00342545
89.09 -0.00326519
89.1 -0.00290358
89.11 -0.00236283
89.12 -0.00166017
89.13 -0.000818056
89.14 0.000136386
89.15 0.00117215
89.16 0.00225521
89.17 0.00334951
89.18 0.00441299
89.19 0.00540714
89.2 0.00629728
89.21 0.00705094
89.22 0.00763935
89.23 0.00803835
89.24 0.00822919
89.25 0.00819926
89.26 0.00793701
89.27 0.00743388
89.28 0.00671535
89.29 0.00579782
89.3 0.00470412
89.31 0.00346298
89.32 0.00210827
89.33 0.000678061
89.34 -0.000786432
89.35 -0.0022386
89.36 -0.00363009
89.37 -0.00491851
89.38 -0.00606332
89.39 -0.0070275
89.4 -0.00777877
89.41 -0.0082906
89.42 -0.00854308
89.43 -0.00852122
89.44 -0.0081994
89.45 -0.0076064
89.46 -0.00675564
89.47 -0.00566834
89.48 -0.00437298
89.49 -0.00290451
89.5 -0.00130346
89.51 0.000385252
89.52 0.002113
89.53 0.0038235
89.54 0.00546543
89.55 0.00699064
89.56 0.00835406
89.57 0.00951509
89.58 0.0104388
89.59 0.011097
89.6 0.0114692
89.61 0.0115166
89.62 0.0112609
89.63 0.0107117
89.64 0.0098847
89.65 0.00880409
89.66 0.00750129
89.67 0.00601418
89.68 0.00438592
89.69 0.00266228
89.7 0.000897587
89.71 -0.000852188
89.72 -0.00253747
89.73 -0.0041112
89.74 -0.00553027
89.75 -0.0067568
89.76 -0.00775933
89.77 -0.00851365
89.78 -0.00898396
89.79 -0.0091762
89.8 -0.00909917
89.81 -0.0087641
89.82 -0.00819007
89.83 -0.00740334
89.84 -0.00643636
89.85 -0.0053266
89.86 -0.00411431
89.87 -0.0028442
89.88 -0.00156782
89.89 -0.0003282
89.9 0.000834187
89.91 0.00188283
89.92 0.00278635
89.93 0.00351952
89.94 0.00406406
89.95 0.00439772
89.96 0.00452191
89.97 0.00445075
89.98 0.00419809
89.99 0.00378447
90 0.00323627
90.01 0.00258465
90.02 0.00186429
90.03 0.00111206
90.04 0.000369582
90.05 -0.000324376
90.06 -0.00093599
90.07 -0.00143533
90.08 -0.00179754
90.09 -0.00200382
90.1 -0.00204216
90.11 -0.00190789
90.12 -0.00159734
90.13 -0.00112108
90.14 -0.000507218
90.15 0.000218891
90.16 0.00102657
90.17 0.00188097
90.18 0.00274444
90.19 0.00357794
90.2 0.00434262
90.21 0.00499012
90.22 0.00549123
90.23 0.00581979
90.24 0.00595436
90.25 0.00588083
90.26 0.00559318
90.27 0.0050939
90.28 0.0043942
90.29 0.00351004
90.3 0.00246654
90.31 0.00131267
90.32 9.09896e-05
90.33 -0.0011515
90.34 -0.0023649
90.35 -0.0034982
90.36 -0.00450108
90.37 -0.00532574
90.38 -0.00591189
90.39 -0.00622695
90.4 -0.00624995
90.41 -0.00596239
90.42 -0.00535593
90.43 -0.00443298
90.44 -0.003207
90.45 -0.00170233
90.46 4.81753e-05
90.47 0.00200977
90.48 0.00410788
90.49 0.00628171
90.5 0.00846596
90.51 0.0105929
90.52 0.0125944
90.53 0.0144044
90.54 0.0159607
90.55 0.0171901
90.56 0.0180413
90.57 0.0184938
90.58 0.0185241
90.59 0.0181218
90.6 0.0172893
90.61 0.0160427
90.62 0.014411
90.63 0.0124359
90.64 0.0101499
90.65 0.00764652
90.66 0.00499942
90.67 0.00228594
90.68 -0.000413797
90.69 -0.00301931
90.7 -0.00545234
90.71 -0.00763927
90.72 -0.00950102
90.73 -0.0109648
90.74 -0.0120068
90.75 -0.012597
90.76 -0.0127191
90.77 -0.0123715
90.78 -0.0115674
90.79 -0.0103345
90.8 -0.00871387
90.81 -0.00673947
90.82 -0.00450059
90.83 -0.00207877
90.84 0.000445834
90.85 0.00298991
90.86 0.0054697
90.87 0.00780363
90.88 0.00991497
90.89 0.0117278
90.9 0.0131567
90.91 0.0141792
90.92 0.0147634
90.93 0.0148917
90.94 0.0145614
90.95 0.013785
90.96 0.0125894
90.97 0.0110152
90.98 0.00910051
90.99 0.00692422
91 0.00457183
91.01 0.00212239
91.02 -0.000342195
91.03 -0.00273989
91.04 -0.00499121
91.05 -0.0070218
91.06 -0.008764
91.07 -0.0101255
91.08 -0.0110914
91.09 -0.0116326
91.1 -0.0117341
91.11 -0.011396
91.12 -0.0106326
91.13 -0.00947235
91.14 -0.00795686
91.15 -0.00612937
91.16 -0.00405918
91.17 -0.00183379
91.18 0.000470232
91.19 0.00277428
91.2 0.00500037
91.21 0.00707369
91.22 0.00892509
91.23 0.0104934
91.24 0.0116966
91.25 0.0125165
91.26 0.0129337
91.27 0.0129383
91.28 0.0125345
91.29 0.01174
91.3 0.0105858
91.31 0.00911464
91.32 0.00737444
91.33 0.0054262
91.34 0.00335647
91.35 0.00123777
91.36 -0.000856548
91.37 -0.00285471
91.38 -0.00468896
91.39 -0.00629779
91.4 -0.00762799
91.41 -0.00861299
91.42 -0.00923132
91.43 -0.00947596
91.44 -0.00934345
91.45 -0.00884329
91.46 -0.00799742
91.47 -0.00683936
91.48 -0.0054129
91.49 -0.00376886
91.5 -0.00196158
91.51 -7.29825e-05
91.52 0.00183063
91.53 0.00368355
91.54 0.00542295
91.55 0.00699101
91.56 0.00833696
91.57 0.00941868
91.58 0.0101882
91.59 0.0106254
91.6 0.0107372
91.61 0.0105293
91.62 0.0100189
91.63 0.00923404
91.64 0.00821261
91.65 0.00700067
91.66 0.00565091
91.67 0.0042188
91.68 0.00277605
91.69 0.00138281
91.7 9.64309e-05
91.71 -0.00103021
91.72 -0.00195059
91.73 -0.00262619
91.74 -0.00302785
91.75 -0.00312635
91.76 -0.00290684
91.77 -0.00239313
91.78 -0.00160239
91.79 -0.000562084
91.8 0.000691012
91.81 0.00211218
91.82 0.00365039
91.83 0.00525013
91.84 0.00684925
91.85 0.00838366
91.86 0.0097976
91.87 0.0110395
91.88 0.012064
91.89 0.0128335
91.9 0.0133194
91.91 0.0135031
91.92 0.0133712
91.93 0.0129114
91.94 0.0121639
91.95 0.0111558
91.96 0.00992349
91.97 0.00851124
91.98 0.00696986
91.99 0.00535476
92 0.00372405
92.01 0.00214249
92.02 0.000672675
92.03 -0.000634456
92.04 -0.00173198
92.05 -0.00258041
92.06 -0.0031491
92.07 -0.00341726
92.08 -0.00337472
92.09 -0.00302125
92.1 -0.00234469
92.11 -0.00139786
92.12 -0.00021495
92.13 0.00116156
92.14 0.00268236
92.15 0.00429304
92.16 0.00593594
92.17 0.00755215
92.18 0.00907739
92.19 0.0104487
92.2 0.0116216
92.21 0.0125536
92.22 0.0132106
92.23 0.0135677
92.24 0.0136105
92.25 0.013335
92.26 0.012748
92.27 0.011845
92.28 0.0106776
92.29 0.00928756
92.3 0.00771986
92.31 0.00602534
92.32 0.00425865
92.33 0.00247644
92.34 0.000735363
92.35 -0.000905674
92.36 -0.00238463
92.37 -0.00366452
92.38 -0.00470872
92.39 -0.00548916
92.4 -0.00598721
92.41 -0.00619417
92.42 -0.00611151
92.43 -0.00575074
92.44 -0.00511772
92.45 -0.00425659
92.46 -0.00321322
92.47 -0.00203222
92.48 -0.00076234
92.49 0.000545278
92.5 0.00183892
92.51 0.00306814
92.52 0.00418366
92.53 0.00512809
92.54 0.00587648
92.55 0.00640174
92.56 0.00668544
92.57 0.00671839
92.58 0.00650086
92.59 0.00604256
92.6 0.00536225
92.61 0.00447881
92.62 0.00343332
92.63 0.00227565
92.64 0.00105154
92.65 -0.000190772
92.66 -0.00140226
92.67 -0.00253487
92.68 -0.00354322
92.69 -0.0043862
92.7 -0.00500764
92.71 -0.0053956
92.72 -0.00553249
92.73 -0.00540879
92.74 -0.0050241
92.75 -0.00438717
92.76 -0.0035156
92.77 -0.00243517
92.78 -0.0011742
92.79 0.000225901
92.8 0.00171016
92.81 0.00323085
92.82 0.00473909
92.83 0.00618649
92.84 0.00752684
92.85 0.00871767
92.86 0.00972167
92.87 0.0104899
92.88 0.01101
92.89 0.0112732
92.9 0.0112753
92.91 0.0110208
92.92 0.0105231
92.93 0.00980349
92.94 0.00889088
92.95 0.0078181
92.96 0.0066238
92.97 0.00536385
92.98 0.00408448
92.99 0.00283202
93 0.00165128
93.01 0.000584026
93.02 -0.000332448
93.03 -0.00106659
93.04 -0.00158028
93.05 -0.00186072
93.06 -0.00190833
93.07 -0.00172471
93.08 -0.00131984
93.09 -0.000711663
93.1 7.45284e-05
93.11 0.00100703
93.12 0.00204913
93.13 0.00316143
93.14 0.00429079
93.15 0.00539274
93.16 0.00642378
93.17 0.00734287
93.18 0.00811289
93.19 0.0087019
93.2 0.00908427
93.21 0.00923117
93.22 0.00913024
93.23 0.00879264
93.24 0.00822637
93.25 0.00744753
93.26 0.00647978
93.27 0.00535355
93.28 0.00410509
93.29 0.00277526
93.3 0.00140896
93.31 5.90367e-05
93.32 -0.00122813
93.33 -0.00240812
93.34 -0.00343962
93.35 -0.00428573
93.36 -0.0049152
93.37 -0.00530342
93.38 -0.00542571
93.39 -0.00526291
93.4 -0.00483361
93.41 -0.00414761
93.42 -0.0032228
93.43 -0.00208465
93.44 -0.000765433
93.45 0.000696752
93.46 0.00225914
93.47 0.0038759
93.48 0.0054915
93.49 0.00705614
93.5 0.00852267
93.51 0.00984666
93.52 0.0109877
93.53 0.0119106
93.54 0.0125863
93.55 0.0129892
93.56 0.0130846
93.57 0.0128905
93.58 0.0124105
93.59 0.011656
93.6 0.0106461
93.61 0.00940681
93.62 0.00797008
93.63 0.00637302
93.64 0.00465289
93.65 0.00286044
93.66 0.00104601
93.67 -0.000744939
93.68 -0.00246835
93.69 -0.00408266
93.7 -0.00554995
93.71 -0.00683686
93.72 -0.0079154
93.73 -0.00874103
93.74 -0.00931863
93.75 -0.00964165
93.76 -0.00970964
93.77 -0.00952872
93.78 -0.00911117
93.79 -0.00847495
93.8 -0.007643
93.81 -0.00663746
93.82 -0.00548986
93.83 -0.00424298
93.84 -0.00293117
93.85 -0.00158895
93.86 -0.000250061
93.87 0.00105343
93.88 0.00229191
93.89 0.00343895
93.9 0.00446177
93.91 0.00534741
93.92 0.00608521
93.93 0.00666711
93.94 0.00708978
93.95 0.0073545
93.96 0.00746691
93.97 0.00743662
93.98 0.00727441
93.99 0.00699253
94 0.00661932
94.01 0.00617536
94.02 0.00568213
94.03 0.00516136
94.04 0.00463445
94.05 0.00412179
94.06 0.00364231
94.07 0.00321686
94.08 0.00285993
94.09 0.00258091
94.1 0.00238795
94.11 0.00228613
94.12 0.00227736
94.13 0.0023605
94.14 0.00253145
94.15 0.00278378
94.16 0.003113
94.17 0.00350009
94.18 0.00393147
94.19 0.00439224
94.2 0.00486668
94.21 0.00533864
94.22 0.00579198
94.23 0.006211
94.24 0.00657795
94.25 0.00687732
94.26 0.0070999
94.27 0.00723587
94.28 0.00727749
94.29 0.00721936
94.3 0.0070585
94.31 0.00679439
94.32 0.00642907
94.33 0.00595943
94.34 0.00540049
94.35 0.00476278
94.36 0.00405785
94.37 0.00329891
94.38 0.00250062
94.39 0.00167874
94.4 0.000849748
94.41 3.13197e-05
94.42 -0.000756847
94.43 -0.00149926
94.44 -0.00218054
94.45 -0.00278655
94.46 -0.00330477
94.47 -0.0037246
94.48 -0.00403763
94.49 -0.0042379
94.5 -0.00431399
94.51 -0.00427065
94.52 -0.00411367
94.53 -0.00384861
94.54 -0.00348371
94.55 -0.00302967
94.56 -0.00249946
94.57 -0.00190797
94.58 -0.00127138
94.59 -0.00060748
94.6 6.1795e-05
94.61 0.000717798
94.62 0.00134226
94.63 0.0019178
94.64 0.0024284
94.65 0.00285989
94.66 0.00320037
94.67 0.00343487
94.68 0.00355793
94.69 0.00357138
94.7 0.0034762
94.71 0.00327673
94.72 0.00298062
94.73 0.00259865
94.74 0.00214445
94.75 0.00163418
94.76 0.00108437
94.77 0.000520027
94.78 -3.79221e-05
94.79 -0.00056839
94.8 -0.00105073
94.81 -0.00146538
94.82 -0.00179446
94.83 -0.0020224
94.84 -0.00213174
94.85 -0.00210993
94.86 -0.00195856
94.87 -0.00167664
94.88 -0.00126718
94.89 -0.000737265
94.9 -9.78598e-05
94.91 0.000636429
94.92 0.00144774
94.93 0.002318
94.94 0.00321857
94.95 0.00412399
94.96 0.00500914
94.97 0.0058491
94.98 0.00661995
94.99 0.0072995
95 0.00786804
95.01 0.00830585
95.02 0.00859206
95.03 0.00872843
95.04 0.00871191
95.05 0.00854422
95.06 0.00823181
95.07 0.00778581
95.08 0.00722167
95.09 0.00655876
95.1 0.00581677
95.11 0.00502646
95.12 0.00421786
95.13 0.00341935
95.14 0.00265923
95.15 0.00196475
95.16 0.00136121
95.17 0.000871081
95.18 0.00051424
95.19 0.000318212
95.2 0.000279613
95.21 0.000401602
95.22 0.000681773
95.23 0.00111212
95.24 0.0016792
95.25 0.0023644
95.26 0.00314452
95.27 0.00399396
95.28 0.00487817
95.29 0.00576098
95.3 0.00660831
95.31 0.00738617
95.32 0.00806173
95.33 0.00860439
95.34 0.00898684
95.35 0.00918598
95.36 0.00916548
95.37 0.00892839
95.38 0.0084721
95.39 0.00779885
95.4 0.00691766
95.41 0.00584421
95.42 0.0046005
95.43 0.00321436
95.44 0.00171661
95.45 0.000146728
95.46 -0.00144761
95.47 -0.00302365
95.48 -0.00453814
95.49 -0.00594852
95.5 -0.00721423
95.51 -0.00829793
95.52 -0.00916658
95.53 -0.00977407
95.54 -0.0101088
95.55 -0.0101642
95.56 -0.00993521
95.57 -0.00942453
95.58 -0.00864271
95.59 -0.00760791
95.6 -0.00634544
95.61 -0.00488479
95.62 -0.00325757
95.63 -0.00152195
95.64 0.000275976
95.65 0.00208827
95.66 0.00386655
95.67 0.00556332
95.68 0.00713332
95.69 0.00853485
95.7 0.00971802
95.71 0.0106517
95.72 0.0113215
95.73 0.0117122
95.74 0.0118166
95.75 0.0116356
95.76 0.011178
95.77 0.0104607
95.78 0.00950779
95.79 0.0083341
95.8 0.00699875
95.81 0.00554368
95.82 0.00401375
95.83 0.00245548
95.84 0.000915794
95.85 -0.000559427
95.86 -0.00192664
95.87 -0.00313874
95.88 -0.00415383
95.89 -0.00495254
95.9 -0.00551374
95.91 -0.00582361
95.92 -0.005876
95.93 -0.00567252
95.94 -0.00522245
95.95 -0.00454237
95.96 -0.00364179
95.97 -0.00256641
95.98 -0.00135492
95.99 -4.63122e-05
96 0.00131801
96.01 0.00269547
96.02 0.00404368
96.03 0.00532167
96.04 0.0064878
96.05 0.00749745
96.06 0.0083305
96.07 0.00896459
96.08 0.00938393
96.09 0.00957972
96.1 0.00955031
96.11 0.00930127
96.12 0.00884508
96.13 0.00819058
96.14 0.00737193
96.15 0.00642597
96.16 0.00538741
96.17 0.00429358
96.18 0.00318332
96.19 0.00209566
96.2 0.00106867
96.21 0.00013919
96.22 -0.000647187
96.23 -0.00127237
96.24 -0.00171483
96.25 -0.00195913
96.26 -0.00199646
96.27 -0.00182483
96.28 -0.00144923
96.29 -0.000881381
96.3 -0.000132455
96.31 0.000769785
96.32 0.00178697
96.33 0.00288492
96.34 0.00402655
96.35 0.005173
96.36 0.00628483
96.37 0.00732325
96.38 0.00825129
96.39 0.00901984
96.4 0.00960847
96.41 0.00999472
96.42 0.0101608
96.43 0.0100956
96.44 0.0097945
96.45 0.00926024
96.46 0.00850236
96.47 0.00753137
96.48 0.00636731
96.49 0.00505247
96.5 0.00362079
96.51 0.00210979
96.52 0.000559514
96.53 -0.000988681
96.54 -0.00249328
96.55 -0.00391382
96.56 -0.00520088
96.57 -0.00632242
96.58 -0.0072521
96.59 -0.00796603
96.6 -0.00844647
96.61 -0.00868227
96.62 -0.00866922
96.63 -0.00841018
96.64 -0.00791145
96.65 -0.00717808
96.66 -0.00625248
96.67 -0.00516394
96.68 -0.00394616
96.69 -0.00263633
96.7 -0.00127402
96.71 9.99548e-05
96.72 0.00144465
96.73 0.00271423
96.74 0.00386807
96.75 0.00487562
96.76 0.00570788
96.77 0.0063411
96.78 0.0067574
96.79 0.0069452
96.8 0.00689958
96.81 0.0066222
96.82 0.0061018
96.83 0.00537622
96.84 0.00446717
96.85 0.00340135
96.86 0.00220967
96.87 0.000926236
96.88 -0.000412544
96.89 -0.00176908
96.9 -0.00310334
96.91 -0.00437342
96.92 -0.00554657
96.93 -0.0065919
96.94 -0.00748249
96.95 -0.0081962
96.96 -0.00871615
96.97 -0.00903114
96.98 -0.00913589
96.99 -0.00901502
97 -0.00868993
97.01 -0.00817714
97.02 -0.00749492
97.03 -0.00666584
97.04 -0.00571607
97.05 -0.0046745
97.06 -0.00357186
97.07 -0.0024399
97.08 -0.00131371
97.09 -0.000225182
97.1 0.00079762
97.11 0.00172957
97.12 0.00254915
97.13 0.00323904
97.14 0.00378651
97.15 0.00418378
97.16 0.00441851
97.17 0.00449897
97.18 0.00443814
97.19 0.00424867
97.2 0.00394718
97.21 0.00355358
97.22 0.00309046
97.23 0.00258224
97.24 0.00205449
97.25 0.00153594
97.26 0.00105273
97.27 0.000628038
97.28 0.000282704
97.29 3.45485e-05
97.3 -0.00010216
97.31 -0.000117138
97.32 -4.39122e-06
97.33 0.000243666
97.34 0.000622896
97.35 0.00111893
97.36 0.00171936
97.37 0.00240811
97.38 0.00316598
97.39 0.0039712
97.4 0.00480013
97.41 0.00562793
97.42 0.00642489
97.43 0.00716629
97.44 0.00782893
97.45 0.00839139
97.46 0.00883483
97.47 0.00914354
97.48 0.00930538
97.49 0.00931212
97.5 0.00915448
97.51 0.00882838
97.52 0.00834899
97.53 0.00772555
97.54 0.00697099
97.55 0.0061015
97.56 0.0051361
97.57 0.00409604
97.58 0.0030042
97.59 0.00188426
97.6 0.000764194
97.61 -0.000331754
97.62 -0.00138108
97.63 -0.002363
97.64 -0.00325901
97.65 -0.00405327
97.66 -0.00473304
97.67 -0.00528669
97.68 -0.00570018
97.69 -0.00598173
97.7 -0.00613332
97.71 -0.00616028
97.72 -0.00607103
97.73 -0.00587672
97.74 -0.00559085
97.75 -0.00522881
97.76 -0.00480507
97.77 -0.0043405
97.78 -0.00385526
97.79 -0.00336697
97.8 -0.0028924
97.81 -0.00244704
97.82 -0.00204468
97.83 -0.00169707
97.84 -0.00141368
97.85 -0.00120834
97.86 -0.00107849
97.87 -0.00102498
97.88 -0.00104603
97.89 -0.00113732
97.9 -0.0012922
97.91 -0.00150195
97.92 -0.00175607
97.93 -0.00204339
97.94 -0.00234953
97.95 -0.00265913
97.96 -0.00295838
97.97 -0.00323373
97.98 -0.00347232
97.99 -0.00366225
98 -0.00379302
98.01 -0.00385568
98.02 -0.00383676
98.03 -0.00373604
98.04 -0.00355227
98.05 -0.00328535
98.06 -0.00293742
98.07 -0.00251279
98.08 -0.00201783
98.09 -0.00146085
98.1 -0.000850862
98.11 -0.000198989
98.12 0.00047832
98.13 0.00116728
98.14 0.0018536
98.15 0.00252275
98.16 0.00316033
98.17 0.00375239
98.18 0.0042857
98.19 0.00474274
98.2 0.00511411
98.21 0.00539302
98.22 0.0055723
98.23 0.00564676
98.24 0.00561327
98.25 0.00547088
98.26 0.00522085
98.27 0.0048657
98.28 0.0044044
98.29 0.00385389
98.3 0.00322421
98.31 0.00252709
98.32 0.00177576
98.33 0.000984638
98.34 0.000169102
98.35 -0.000654857
98.36 -0.00146974
98.37 -0.00225733
98.38 -0.00300242
98.39 -0.00369018
98.4 -0.00430702
98.41 -0.0048408
98.42 -0.00528123
98.43 -0.00562006
98.44 -0.00585134
98.45 -0.00596163
98.46 -0.00595955
98.47 -0.00584809
98.48 -0.00563223
98.49 -0.00531944
98.5 -0.0049196
98.51 -0.00444478
98.52 -0.00390891
98.53 -0.00332658
98.54 -0.00271578
98.55 -0.00209671
98.56 -0.00148713
98.57 -0.000904493
98.58 -0.000365499
98.59 0.000114407
98.6 0.000521459
98.61 0.000843994
98.62 0.0010655
98.63 0.00118415
98.64 0.00119931
98.65 0.00111144
98.66 0.000924243
98.67 0.00064454
98.68 0.000282167
98.69 -0.000150286
98.7 -0.000638457
98.71 -0.00116556
98.72 -0.00170872
98.73 -0.00224827
98.74 -0.00276432
98.75 -0.00323735
98.76 -0.00364883
98.77 -0.00398185
98.78 -0.00422167
98.79 -0.00434965
98.8 -0.00435845
98.81 -0.00424748
98.82 -0.004016
98.83 -0.0036672
98.84 -0.00320815
98.85 -0.00264973
98.86 -0.00200631
98.87 -0.00129534
98.88 -0.000534947
98.89 0.000246228
98.9 0.00102423
98.91 0.0017746
98.92 0.00247312
98.93 0.00309664
98.94 0.00362379
98.95 0.00403571
98.96 0.00431078
98.97 0.0044346
98.98 0.00440759
98.99 0.00422784
99 0.00389825
99.01 0.00342654
99.02 0.00282512
99.03 0.00211082
99.04 0.00130438
99.05 0.000426652
99.06 -0.000488157
99.07 -0.00141021
99.08 -0.00230982
99.09 -0.00315751
99.1 -0.00392495
99.11 -0.00458592
99.12 -0.0051172
99.13 -0.00549504
99.14 -0.00569654
99.15 -0.00572354
99.16 -0.00557316
99.17 -0.00524829
99.18 -0.00475767
99.19 -0.00411572
99.2 -0.00334214
99.21 -0.00246143
99.22 -0.00149916
99.23 -0.000493841
99.24 0.000517954
99.25 0.00150093
99.26 0.00242006
99.27 0.00324169
99.28 0.00393473
99.29 0.00447167
99.3 0.00482752
99.31 0.00496926
99.32 0.00490245
99.33 0.00462411
99.34 0.00413827
99.35 0.00345601
99.36 0.00259527
99.37 0.00158044
99.38 0.000441692
99.39 -0.000788169
99.4 -0.00206414
99.41 -0.00334006
99.42 -0.00457229
99.43 -0.0057174
99.44 -0.00673346
99.45 -0.00758146
99.46 -0.00822658
99.47 -0.00863936
99.48 -0.00877252
99.49 -0.00863193
99.5 -0.00821311
99.51 -0.00751874
99.52 -0.00656002
99.53 -0.00535656
99.54 -0.00393592
99.55 -0.00233294
99.56 -0.000585703
99.57 0.00125563
99.58 0.00313173
99.59 0.00498927
99.6 0.00677433
99.61 0.00843396
99.62 0.0099178
99.63 0.0111796
99.64 0.0121785
99.65 0.0128567
99.66 0.0132025
99.67 0.013207
99.68 0.0128642
99.69 0.0121782
99.7 0.0111624
99.71 0.00983973
99.72 0.00824183
99.73 0.00640474
99.74 0.0043697
99.75 0.00220699
99.76 -2.68068e-05
99.77 -0.0022731
99.78 -0.00447295
99.79 -0.00656876
99.8 -0.0085059
99.81 -0.0102343
99.82 -0.0116928
99.83 -0.012847
99.84 -0.0136795
99.85 -0.0141731
99.86 -0.0143199
99.87 -0.014122
99.88 -0.0135909
99.89 -0.0127474
99.9 -0.0116201
99.91 -0.0102285
99.92 -0.00864255
99.93 -0.00691163
99.94 -0.00508827
99.95 -0.00322662
99.96 -0.00138084
99.97 0.000396522
99.98 0.00205599
99.99 0.00354389
100 0.0048152
100.01 0.00584809
100.02 0.00661988
100.03 0.00711624
100.04 0.00733148
100.05 0.00726849
100.06 0.00693849
100.07 0.00636051
100.08 0.00554504
100.09 0.00454341
100.1 0.00339629
100.11 0.00214487
100.12 0.000832276
100.13 -0.000497917
100.14 -0.00180303
100.15 -0.00304262
100.16 -0.00417604
100.17 -0.00516249
100.18 -0.00598386
100.19 -0.00662119
100.2 -0.00706241
100.21 -0.00730248
100.22 -0.00734343
100.23 -0.00719407
100.24 -0.00686951
100.25 -0.00638196
100.26 -0.00576622
100.27 -0.00505651
100.28 -0.00428512
100.29 -0.00348549
100.3 -0.00269101
100.31 -0.0019338
100.32 -0.00124366
100.33 -0.000648317
100.34 -0.000179904
100.35 0.000153848
100.36 0.000342766
100.37 0.000382616
100.38 0.00027517
100.39 2.80708e-05
100.4 -0.000345514
100.41 -0.000827418
100.42 -0.00139818
100.43 -0.00202763
100.44 -0.00268336
100.45 -0.00333542
100.46 -0.0039538
100.47 -0.00450951
100.48 -0.00497563
100.49 -0.00532826
100.5 -0.00554742
100.51 -0.00560334
100.52 -0.00549882
100.53 -0.00523124
100.54 -0.00480317
100.55 -0.00422288
100.56 -0.00350416
100.57 -0.00266582
100.58 -0.00173114
100.59 -0.000725727
100.6 0.000317723
100.61 0.00136342
100.62 0.00237891
100.63 0.00333222
100.64 0.00419293
100.65 0.00493313
100.66 0.00552833
100.67 0.00595823
100.68 0.00619307
100.69 0.00623264
100.7 0.00607747
100.71 0.00573029
100.72 0.00519958
100.73 0.00449921
100.74 0.00364804
100.75 0.00266931
100.76 0.00158855
100.77 0.000435006
100.78 -0.000752281
100.79 -0.00194082
100.8 -0.00309851
100.81 -0.00419454
100.82 -0.00520039
100.83 -0.00609061
100.84 -0.00684356
100.85 -0.00743212
100.86 -0.00784702
100.87 -0.00808791
100.88 -0.00815424
100.89 -0.00805074
100.9 -0.00778712
100.91 -0.00737771
100.92 -0.00684092
100.93 -0.00619828
100.94 -0.00546994
100.95 -0.0046918
100.96 -0.00389134
100.97 -0.00309591
100.98 -0.00233194
100.99 -0.00162403
101 -0.000994315
101.01 -0.000461749
101.02 -4.70329e-05
101.03 0.000236948
101.04 0.000390251
101.05 0.00041162
101.06 0.00030422
101.07 7.54341e-05
101.08 -0.000263474
101.09 -0.000697812
101.1 -0.00121002
101.11 -0.00178332
101.12 -0.00239016
101.13 -0.00300773
101.14 -0.00361401
101.15 -0.00418785
101.16 -0.00470968
101.17 -0.0051621
101.18 -0.00553041
101.19 -0.00580015
101.2 -0.00595882
101.21 -0.00600941
101.22 -0.00595223
101.23 -0.00579126
101.24 -0.00553398
101.25 -0.00519105
101.26 -0.00477586
101.27 -0.00430408
101.28 -0.00379168
101.29 -0.00326073
101.3 -0.00273103
101.31 -0.00222099
101.32 -0.00174795
101.33 -0.00132764
101.34 -0.000973621
101.35 -0.000696839
101.36 -0.000506406
101.37 -0.000413429
101.38 -0.000411375
101.39 -0.000497384
101.4 -0.000665312
101.41 -0.00090596
101.42 -0.0012074
101.43 -0.0015554
101.44 -0.00193394
101.45 -0.00232546
101.46 -0.00270972
101.47 -0.00306849
101.48 -0.00338485
101.49 -0.00364332
101.5 -0.00383046
101.51 -0.00393533
101.52 -0.00394999
101.53 -0.00386982
101.54 -0.00368522
101.55 -0.00340814
101.56 -0.00304609
101.57 -0.00260981
101.58 -0.00211331
101.59 -0.00157353
101.6 -0.00100982
101.61 -0.000443425
101.62 0.000101585
101.63 0.000598509
101.64 0.00102603
101.65 0.00136265
101.66 0.00158872
101.67 0.00168714
101.68 0.00164403
101.69 0.00144922
101.7 0.00109677
101.71 0.000573473
101.72 -0.000107041
101.73 -0.000932379
101.74 -0.00188831
101.75 -0.00295603
101.76 -0.00411257
101.77 -0.00533123
101.78 -0.00658225
101.79 -0.00783279
101.8 -0.00904368
101.81 -0.010181
101.82 -0.0112109
101.83 -0.0121013
101.84 -0.0128221
101.85 -0.013347
101.86 -0.0136536
101.87 -0.0137242
101.88 -0.0135316
101.89 -0.0130765
101.9 -0.0123693
101.91 -0.0114183
101.92 -0.0102387
101.93 -0.00885143
101.94 -0.00728371
101.95 -0.00556792
101.96 -0.0037407
101.97 -0.00184119
101.98 7.72572e-05
101.99 0.00196928
102 0.00378927
102.01 0.00549264
102.02 0.0070369
102.03 0.00838293
102.04 0.00949597
102.05 0.0103338
102.06 0.01087
102.07 0.0111033
102.08 0.011027
102.09 0.0106424
102.1 0.00995857
102.11 0.00899255
102.12 0.00776889
102.13 0.0063191
102.14 0.00466866
102.15 0.00287899
102.16 0.000999892
102.17 -0.000918119
102.18 -0.00282327
102.19 -0.00466388
102.2 -0.00638979
102.21 -0.00795372
102.22 -0.00930541
102.23 -0.0103948
102.24 -0.0112062
102.25 -0.0117175
102.26 -0.0119153
102.27 -0.0117943
102.28 -0.0113585
102.29 -0.0106203
102.3 -0.00960102
102.31 -0.00831484
102.32 -0.0068136
102.33 -0.0051475
102.34 -0.00336497
102.35 -0.00151786
102.36 0.000340063
102.37 0.00215456
102.38 0.00387248
102.39 0.00544053
102.4 0.0067948
102.41 0.00790802
102.42 0.00874715
102.43 0.00928687
102.44 0.00951028
102.45 0.00940935
102.46 0.00898518
102.47 0.00824795
102.48 0.00720251
102.49 0.00588383
102.5 0.00434021
102.51 0.00261396
102.52 0.000752323
102.53 -0.00119397
102.54 -0.00317209
102.55 -0.00512868
102.56 -0.00701133
102.57 -0.00875436
102.58 -0.0103201
102.59 -0.0116693
102.6 -0.0127692
102.61 -0.0135942
102.62 -0.0141271
102.63 -0.0143589
102.64 -0.0142893
102.65 -0.0139164
102.66 -0.013254
102.67 -0.0123444
102.68 -0.0112197
102.69 -0.00991743
102.7 -0.00847932
102.71 -0.00694994
102.72 -0.00537541
102.73 -0.00380193
102.74 -0.00228125
102.75 -0.000856428
102.76 0.000436144
102.77 0.00156437
102.78 0.00250219
102.79 0.00323028
102.8 0.00373641
102.81 0.00401568
102.82 0.00406576
102.83 0.00388691
102.84 0.0035127
102.85 0.00296605
102.86 0.00227454
102.87 0.00146941
102.88 0.000584383
102.89 -0.000345504
102.9 -0.00128511
102.91 -0.00219685
102.92 -0.00304643
102.93 -0.00380711
102.94 -0.00445554
102.95 -0.00497341
102.96 -0.00534788
102.97 -0.00557188
102.98 -0.00564423
102.99 -0.00556858
103 -0.00534511
103.01 -0.00500261
103.02 -0.00456096
103.03 -0.00404321
103.04 -0.00347462
103.05 -0.00288168
103.06 -0.00229108
103.07 -0.0017287
103.08 -0.00122206
103.09 -0.00079512
103.1 -0.000462276
103.11 -0.000236414
103.12 -0.000125815
103.13 -0.00013392
103.14 -0.000259269
103.15 -0.000495639
103.16 -0.000832343
103.17 -0.00126045
103.18 -0.00175338
103.19 -0.0022892
103.2 -0.00284521
103.21 -0.00339804
103.22 -0.00392456
103.23 -0.00440278
103.24 -0.00481269
103.25 -0.005134
103.26 -0.0053483
103.27 -0.00545226
103.28 -0.00544126
103.29 -0.00531516
103.3 -0.00507826
103.31 -0.00473915
103.32 -0.0043103
103.33 -0.00380761
103.34 -0.0032474
103.35 -0.00265523
103.36 -0.00205453
103.37 -0.00146754
103.38 -0.000915837
103.39 -0.000419464
103.4 3.79442e-06
103.41 0.000339089
103.42 0.000573482
103.43 0.000692175
103.44 0.000700909
103.45 0.00060158
103.46 0.000400188
103.47 0.000106554
103.48 -0.000266112
103.49 -0.000701772
103.5 -0.00118223
103.51 -0.00168809
103.52 -0.00219639
103.53 -0.00268644
103.54 -0.00313972
103.55 -0.00353975
103.56 -0.00387269
103.57 -0.00412794
103.58 -0.00429853
103.59 -0.0043814
103.6 -0.00436984
103.61 -0.00427782
103.62 -0.00411484
103.63 -0.00389351
103.64 -0.00362907
103.65 -0.00333866
103.66 -0.00304058
103.67 -0.00275346
103.68 -0.00249719
103.69 -0.00229104
103.7 -0.00214708
103.71 -0.00207604
103.72 -0.00208501
103.73 -0.00217694
103.74 -0.00235044
103.75 -0.00259967
103.76 -0.00291444
103.77 -0.00328311
103.78 -0.00368256
103.79 -0.00409071
103.8 -0.0044844
103.81 -0.00483954
103.82 -0.00513211
103.83 -0.00533918
103.84 -0.00543999
103.85 -0.00541377
103.86 -0.00523933
103.87 -0.00491835
103.88 -0.00444907
103.89 -0.00383577
103.9 -0.00308889
103.91 -0.00222502
103.92 -0.00126654
103.93 -0.000241104
103.94 0.000818964
103.95 0.00187249
103.96 0.00288
103.97 0.00380221
103.98 0.00460048
103.99 0.00523821
104 0.00568219
104.01 0.00590403
104.02 0.00587936
104.03 0.00557132
104.04 0.00499602
104.05 0.0041566
104.06 0.00306504
104.07 0.00174216
104.08 0.000217224
104.09 -0.00147268
104.1 -0.00328359
104.11 -0.00516654
104.12 -0.00706033
104.13 -0.00890501
104.14 -0.0106434
104.15 -0.0122197
104.16 -0.0135816
104.17 -0.0146817
104.18 -0.0154794
104.19 -0.0159425
104.2 -0.016016
104.21 -0.0157163
104.22 -0.0150479
104.23 -0.0140236
104.24 -0.0126675
104.25 -0.0110143
104.26 -0.00910881
104.27 -0.00700407
104.28 -0.00475811
104.29 -0.00244204
104.3 -0.000133107
104.31 0.00209919
104.32 0.00418709
104.33 0.00606678
104.34 0.00768045
104.35 0.00897824
104.36 0.00991992
104.37 0.0104479
104.38 0.0105634
104.39 0.0102745
104.4 0.00959341
104.41 0.00854482
104.42 0.00716571
104.43 0.0055041
104.44 0.00361756
104.45 0.00157016
104.46 -0.000564761
104.47 -0.00270052
104.48 -0.00476189
104.49 -0.00667577
104.5 -0.00837365
104.51 -0.00979391
104.52 -0.0108839
104.53 -0.0116017
104.54 -0.0118947
104.55 -0.0117532
104.56 -0.0111945
104.57 -0.0102343
104.58 -0.00890199
104.59 -0.00724035
104.6 -0.00530377
104.61 -0.0031568
104.62 -0.000872131
104.63 0.00146956
104.64 0.0037743
104.65 0.00595998
104.66 0.00794724
104.67 0.0096621
104.68 0.0110384
104.69 0.01202
104.7 0.0125628
104.71 0.0126169
104.72 0.0121588
104.73 0.0112177
104.74 0.00981195
104.75 0.00797517
104.76 0.00575488
104.77 0.00321134
104.78 0.000415631
104.79 -0.00255243
104.8 -0.00560637
104.81 -0.00864243
104.82 -0.0115693
104.83 -0.0142995
104.84 -0.0167513
104.85 -0.0188509
104.86 -0.0205348
104.87 -0.021752
104.88 -0.0224528
104.89 -0.0225901
104.9 -0.0221974
104.91 -0.0212884
104.92 -0.0198923
104.93 -0.0180529
104.94 -0.0158271
104.95 -0.0132834
104.96 -0.0104991
104.97 -0.00755473
104.98 -0.00455382
104.99 -0.00159066
105 0.00124719
105.01 0.00387703
105.02 0.00622354
105.03 0.00822106
105.04 0.0098155
105.05 0.010962
105.06 0.0115964
105.07 0.0117493
105.08 0.0114282
105.09 0.0106551
105.1 0.00946591
105.11 0.00790916
105.12 0.00604427
105.13 0.00393956
105.14 0.00166599
105.15 -0.00068675
105.16 -0.00303091
105.17 -0.00528768
105.18 -0.00738245
105.19 -0.00924712
105.2 -0.0108222
105.21 -0.0120584
105.22 -0.0129184
105.23 -0.0133415
105.24 -0.0133497
105.25 -0.0129515
105.26 -0.0121653
105.27 -0.0110218
105.28 -0.0095628
105.29 -0.00783949
105.3 -0.00591083
105.31 -0.00383921
105.32 -0.00169866
105.33 0.000433472
105.34 0.00248971
105.35 0.00440636
105.36 0.0061255
105.37 0.00759672
105.38 0.00877855
105.39 0.00963966
105.4 0.0101345
105.41 0.0102714
105.42 0.0100632
105.43 0.00952548
105.44 0.0086841
105.45 0.00757377
105.46 0.00623679
105.47 0.00472149
105.48 0.00307933
105.49 0.00136688
105.5 -0.000351374
105.51 -0.00202187
105.52 -0.00359454
105.53 -0.00502434
105.54 -0.00627258
105.55 -0.00730799
105.56 -0.00810751
105.57 -0.0086424
105.58 -0.00891216
105.59 -0.00893171
105.6 -0.00871439
105.61 -0.0082809
105.62 -0.00765824
105.63 -0.0068786
105.64 -0.00597795
105.65 -0.00499464
105.66 -0.0039677
105.67 -0.00294271
105.68 -0.00195592
105.69 -0.00104019
105.7 -0.000223881
105.71 0.000469906
105.72 0.00102397
105.73 0.00142736
105.74 0.00166929
105.75 0.00175033
105.76 0.00168774
105.77 0.00149546
105.78 0.00119178
105.79 0.000798299
105.8 0.000338965
105.81 -0.000161053
105.82 -0.000676453
105.83 -0.00118034
105.84 -0.00164924
105.85 -0.00206456
105.86 -0.00241127
105.87 -0.00267857
105.88 -0.00286022
105.89 -0.00295463
105.9 -0.00296482
105.91 -0.00289645
105.92 -0.00275932
105.93 -0.00257363
105.94 -0.00235656
105.95 -0.00212661
105.96 -0.00190268
105.97 -0.00170322
105.98 -0.00154523
105.99 -0.00144352
106 -0.00141483
106.01 -0.00146543
106.02 -0.00159646
106.03 -0.0018069
106.04 -0.00209135
106.05 -0.00244028
106.06 -0.00284035
106.07 -0.00327491
106.08 -0.00372462
106.09 -0.00416569
106.1 -0.00457495
106.11 -0.00493048
106.12 -0.00521158
106.13 -0.00539964
106.14 -0.00547898
106.15 -0.00543764
106.16 -0.00526794
106.17 -0.00496065
106.18 -0.00451923
106.19 -0.00395805
106.2 -0.00329034
106.21 -0.00253385
106.22 -0.00171022
106.23 -0.000844333
106.24 3.66155e-05
106.25 0.00090405
106.26 0.00172282
106.27 0.00246617
106.28 0.0031087
106.29 0.00362781
106.3 0.00400493
106.31 0.00422622
106.32 0.00428318
106.33 0.00417309
106.34 0.00389406
106.35 0.00345271
106.36 0.00287521
106.37 0.00218282
106.38 0.00140121
106.39 0.000559565
106.4 -0.000310415
106.41 -0.00117563
106.42 -0.00200274
106.43 -0.00275204
106.44 -0.00339438
106.45 -0.00390546
106.46 -0.00426395
106.47 -0.00445387
106.48 -0.00446528
106.49 -0.00429467
106.5 -0.00394517
106.51 -0.00342389
106.52 -0.00274023
106.53 -0.00193031
106.54 -0.00102225
106.55 -4.81609e-05
106.56 0.000957039
106.57 0.00195678
106.58 0.00291414
106.59 0.00379316
106.6 0.00455189
106.61 0.00515934
106.62 0.00559538
106.63 0.00584131
106.64 0.00588489
106.65 0.00572077
106.66 0.0053508
106.67 0.004784
106.68 0.00403597
106.69 0.00311742
106.7 0.00207402
106.71 0.000939475
106.72 -0.000249225
106.73 -0.00145304
106.74 -0.00263223
106.75 -0.00374775
106.76 -0.00476255
106.77 -0.0056361
106.78 -0.00633441
106.79 -0.0068427
106.8 -0.00714543
106.81 -0.00723418
106.82 -0.007108
106.83 -0.00677341
106.84 -0.00624424
106.85 -0.00554111
106.86 -0.00468146
106.87 -0.00371076
106.88 -0.00266767
106.89 -0.00159137
106.9 -0.000522083
106.91 0.000500305
106.92 0.00143766
106.93 0.00225496
106.94 0.00291692
106.95 0.00338872
106.96 0.00366379
106.97 0.00373216
106.98 0.00359143
106.99 0.00324687
107 0.00271129
107.01 0.00200462
107.02 0.0011532
107.03 0.000183991
107.04 -0.000858156
107.05 -0.00193008
107.06 -0.00299041
107.07 -0.00399782
107.08 -0.00491252
107.09 -0.00569764
107.1 -0.00632055
107.11 -0.00675187
107.12 -0.00695395
107.13 -0.00693134
107.14 -0.00668019
107.15 -0.00620465
107.16 -0.00551688
107.17 -0.00463661
107.18 -0.0035906
107.19 -0.00241177
107.2 -0.00113556
107.21 0.00019009
107.22 0.00151659
107.23 0.00279881
107.24 0.00399263
107.25 0.00505635
107.26 0.00595218
107.27 0.00664749
107.28 0.00711594
107.29 0.00731548
107.3 0.00725605
107.31 0.00693817
107.32 0.00636952
107.33 0.00556609
107.34 0.00455166
107.35 0.00335709
107.36 0.00201936
107.37 0.000578583
107.38 -0.000915455
107.39 -0.00240907
107.4 -0.00385413
107.41 -0.00520382
107.42 -0.00641414
107.43 -0.00744537
107.44 -0.00826323
107.45 -0.00884008
107.46 -0.00913557
107.47 -0.00915156
107.48 -0.00889201
107.49 -0.00836397
107.5 -0.00758282
107.51 -0.00657176
107.52 -0.00536105
107.53 -0.00398705
107.54 -0.00248965
107.55 -0.000914423
107.56 0.000682529
107.57 0.00225356
107.58 0.00375224
107.59 0.00513475
107.6 0.00636129
107.61 0.0073972
107.62 0.0082141
107.63 0.00877587
107.64 0.00907361
107.65 0.00911247
107.66 0.0088969
107.67 0.0084392
107.68 0.00775911
107.69 0.00688309
107.7 0.00584341
107.71 0.00467685
107.72 0.00342051
107.73 0.00212848
107.74 0.000844331
107.75 -0.000389244
107.76 -0.00153177
107.77 -0.00254624
107.78 -0.00340019
107.79 -0.00406672
107.8 -0.00451577
107.81 -0.00473077
107.82 -0.004718
107.83 -0.00448017
107.84 -0.00402717
107.85 -0.00337574
107.86 -0.00254887
107.87 -0.001575
107.88 -0.000487134
107.89 0.000681368
107.9 0.00188254
107.91 0.00307545
107.92 0.00422049
107.93 0.00527967
107.94 0.00621772
107.95 0.00700311
107.96 0.00760896
107.97 0.00800793
107.98 0.00817476
107.99 0.0081157
108 0.00782986
108.01 0.00732292
108.02 0.00660691
108.03 0.00569981
108.04 0.00462497
108.05 0.00341043
108.06 0.00208323
108.07 0.000686335
108.08 -0.000740391
108.09 -0.0021594
108.1 -0.00353356
108.11 -0.00482716
108.12 -0.00600684
108.13 -0.00704242
108.14 -0.00790551
108.15 -0.00855902
108.16 -0.00900221
108.17 -0.00922533
108.18 -0.00922429
108.19 -0.00900068
108.2 -0.00856161
108.21 -0.00791944
108.22 -0.00709136
108.23 -0.0060919
108.24 -0.00495102
108.25 -0.00370459
108.26 -0.00238344
108.27 -0.00101966
108.28 0.000354283
108.29 0.00170626
108.3 0.0030053
108.31 0.00422229
108.32 0.00531874
108.33 0.0062792
108.34 0.00708526
108.35 0.00772213
108.36 0.00817939
108.37 0.00845113
108.38 0.008536
108.39 0.00843715
108.4 0.0081563
108.41 0.00770287
108.42 0.00710331
108.43 0.00637681
108.44 0.0055452
108.45 0.00463233
108.46 0.00366352
108.47 0.00266485
108.48 0.00166261
108.49 0.000686107
108.5 -0.000239023
108.51 -0.0010908
108.52 -0.00184915
108.53 -0.00249684
108.54 -0.00301986
108.55 -0.00340781
108.56 -0.00365405
108.57 -0.00375306
108.58 -0.00369882
108.59 -0.00350826
108.6 -0.00319121
108.61 -0.00276091
108.62 -0.00223371
108.63 -0.00162855
108.64 -0.000966502
108.65 -0.000270189
108.66 0.000436018
108.67 0.00112532
108.68 0.00177423
108.69 0.00236074
108.7 0.00286472
108.71 0.00326851
108.72 0.0035574
108.73 0.00372016
108.74 0.00374881
108.75 0.00362828
108.76 0.0033727
108.77 0.0029883
108.78 0.00248551
108.79 0.00187867
108.8 0.00118573
108.81 0.000427744
108.82 -0.000371676
108.83 -0.00118649
108.84 -0.00198649
108.85 -0.00274401
108.86 -0.00343268
108.87 -0.00402756
108.88 -0.00450597
108.89 -0.0048482
108.9 -0.00503821
108.91 -0.00506414
108.92 -0.00490449
108.93 -0.00457002
108.94 -0.00406706
108.95 -0.00340517
108.96 -0.00259896
108.97 -0.00166776
108.98 -0.00063514
108.99 0.000471715
109 0.00162303
109.01 0.00278338
109.02 0.0039169
109.03 0.00499053
109.04 0.00597243
109.05 0.00683298
109.06 0.00754569
109.07 0.00808813
109.08 0.00844267
109.09 0.00858323
109.1 0.00851189
109.11 0.00823561
109.12 0.00776227
109.13 0.00710596
109.14 0.00628664
109.15 0.00532964
109.16 0.00426497
109.17 0.00312602
109.18 0.00195076
109.19 0.000783364
109.2 -0.000337448
109.21 -0.00137396
109.22 -0.00229069
109.23 -0.00305553
109.24 -0.00364083
109.25 -0.00402434
109.26 -0.00417818
109.27 -0.00409494
109.28 -0.00378368
109.29 -0.00325147
109.3 -0.00251268
109.31 -0.00158855
109.32 -0.000506693
109.33 0.000699753
109.34 0.00199306
109.35 0.00333223
109.36 0.00466623
109.37 0.00595082
109.38 0.00714289
109.39 0.00820167
109.4 0.00909008
109.41 0.00977594
109.42 0.0102331
109.43 0.0104328
109.44 0.0103574
109.45 0.01002
109.46 0.00942726
109.47 0.00859427
109.48 0.00754382
109.49 0.00630596
109.5 0.00491701
109.51 0.00341855
109.52 0.00185498
109.53 0.000282957
109.54 -0.0012473
109.55 -0.00268759
109.56 -0.00399219
109.57 -0.00511928
109.58 -0.00603236
109.59 -0.00670142
109.6 -0.00709813
109.61 -0.00719278
109.62 -0.00700206
109.63 -0.00653178
109.64 -0.0057967
109.65 -0.00482013
109.66 -0.00363317
109.67 -0.00227385
109.68 -0.00078592
109.69 0.000784187
109.7 0.00237738
109.71 0.00393891
109.72 0.00541748
109.73 0.00676432
109.74 0.0079348
109.75 0.0088898
109.76 0.00959706
109.77 0.0100308
109.78 0.0101504
109.79 0.00997654
109.8 0.00951475
109.81 0.00877994
109.82 0.00779602
109.83 0.00659519
109.84 0.00521692
109.85 0.00370678
109.86 0.00211381
109.87 0.000498115
109.88 -0.00108185
109.89 -0.00257218
109.9 -0.0039215
109.91 -0.00508254
109.92 -0.00601367
109.93 -0.00668021
109.94 -0.00705553
109.95 -0.00709531
109.96 -0.00681492
109.97 -0.00622155
109.98 -0.00532884
109.99 -0.00415966
110 -0.00274545
110.01 -0.00112527
110.02 0.000655452
110.03 0.00254781
110.04 0.00449356
110.05 0.00643017
110.06 0.00830223
110.07 0.0100564
110.08 0.0116429
110.09 0.0130172
110.1 0.0141413
110.11 0.0149844
110.12 0.0155028
110.13 0.0156962
110.14 0.0155706
110.15 0.0151339
110.16 0.0144022
110.17 0.0134004
110.18 0.0121605
110.19 0.0107208
110.2 0.00912317
110.21 0.00741224
110.22 0.00564934
110.23 0.00388381
110.24 0.00216359
110.25 0.000533764
110.26 -0.000964737
110.27 -0.00229631
110.28 -0.00343165
110.29 -0.00433616
110.3 -0.00499681
110.31 -0.00541779
110.32 -0.00560176
110.33 -0.00555878
110.34 -0.00530573
110.35 -0.00486551
110.36 -0.00426611
110.37 -0.00353947
110.38 -0.0027151
110.39 -0.00184047
110.4 -0.000951914
110.41 -8.41573e-05
110.42 0.000730665
110.43 0.00146404
110.44 0.00209195
110.45 0.00259561
110.46 0.00295657
110.47 0.00316481
110.48 0.00322877
110.49 0.00315475
110.5 0.00295453
110.51 0.00264469
110.52 0.00224586
110.53 0.00178184
110.54 0.00127862
110.55 0.00076447
110.56 0.000269715
110.57 -0.000179811
110.58 -0.000560715
110.59 -0.000852745
110.6 -0.00103953
110.61 -0.00110916
110.62 -0.00105459
110.63 -0.000871205
110.64 -0.000556754
110.65 -0.000129642
110.66 0.000396483
110.67 0.00100409
110.68 0.00167249
110.69 0.00237864
110.7 0.00309804
110.71 0.00380572
110.72 0.00447346
110.73 0.00507685
110.74 0.00559708
110.75 0.00601727
110.76 0.00632446
110.77 0.00651008
110.78 0.00657021
110.79 0.0065058
110.8 0.00632189
110.81 0.00602125
110.82 0.00562962
110.83 0.00516575
110.84 0.00465114
110.85 0.00410915
110.86 0.00356413
110.87 0.00304054
110.88 0.00256196
110.89 0.00215417
110.9 0.00183871
110.91 0.00162712
110.92 0.00153022
110.93 0.00155427
110.94 0.0017007
110.95 0.00196601
110.96 0.00234185
110.97 0.00281529
110.98 0.00337428
110.99 0.00398975
111 0.00463686
111.01 0.0052897
111.02 0.00592147
111.03 0.00650544
111.04 0.00701586
111.05 0.00742894
111.06 0.00771956
111.07 0.00786409
111.08 0.00785829
111.09 0.00769493
111.1 0.00737198
111.11 0.0068927
111.12 0.0062656
111.13 0.00550424
111.14 0.00462681
111.15 0.00365093
111.16 0.00260956
111.17 0.00153375
111.18 0.000453734
111.19 -0.000599752
111.2 -0.00159643
111.21 -0.00250742
111.22 -0.00330617
111.23 -0.00396701
111.24 -0.00445859
111.25 -0.00477812
111.26 -0.00491663
111.27 -0.0048704
111.28 -0.00464098
111.29 -0.00423516
111.3 -0.00366463
111.31 -0.00294562
111.32 -0.00209272
111.33 -0.00113435
111.34 -0.000102057
111.35 0.000976237
111.36 0.00207204
111.37 0.00315715
111.38 0.00420448
111.39 0.00518886
111.4 0.00608771
111.41 0.00687042
111.42 0.0075304
111.43 0.0080571
111.44 0.00844408
111.45 0.00868914
111.46 0.00879417
111.47 0.00876489
111.48 0.00861047
111.49 0.00833926
111.5 0.00796599
111.51 0.00751341
111.52 0.00699895
111.53 0.00644023
111.54 0.00585446
111.55 0.00525784
111.56 0.00466504
111.57 0.00408876
111.58 0.00354212
111.59 0.00303169
111.6 0.00256166
111.61 0.00213409
111.62 0.00174865
111.63 0.00140291
111.64 0.00109263
111.65 0.000812248
111.66 0.00055572
111.67 0.000316379
111.68 8.61671e-05
111.69 -0.000140537
111.7 -0.000368083
111.71 -0.000599168
111.72 -0.000834535
111.73 -0.00107277
111.74 -0.00131022
111.75 -0.00154007
111.76 -0.00175334
111.77 -0.00194007
111.78 -0.00208867
111.79 -0.00218666
111.8 -0.00222117
111.81 -0.00217957
111.82 -0.00205002
111.83 -0.00182142
111.84 -0.0014763
111.85 -0.00101837
111.86 -0.000445778
111.87 0.000239787
111.88 0.00103288
111.89 0.00192417
111.9 0.0029005
111.91 0.00394503
111.92 0.00503871
111.93 0.00615517
111.94 0.0072664
111.95 0.00834513
111.96 0.00936343
111.97 0.0102936
111.98 0.0111089
111.99 0.0117847
112 0.012299
112.01 0.0126168
112.02 0.0127373
112.03 0.012654
112.04 0.0123642
112.05 0.0118708
112.06 0.0111822
112.07 0.0103124
112.08 0.00928077
112.09 0.00810791
112.1 0.0068222
112.11 0.00546442
112.12 0.00406907
112.13 0.00267189
112.14 0.00130881
112.15 1.48978e-05
112.16 -0.00117675
112.17 -0.00223596
112.18 -0.00312377
112.19 -0.00382455
112.2 -0.00432746
112.21 -0.00462377
112.22 -0.00471104
112.23 -0.00459325
112.24 -0.00428061
112.25 -0.00378931
112.26 -0.00313898
112.27 -0.00235084
112.28 -0.00146806
112.29 -0.000524308
112.3 0.00044522
112.31 0.00140494
112.32 0.00232004
112.33 0.00315766
112.34 0.00388792
112.35 0.0044765
112.36 0.00490273
112.37 0.00515811
112.38 0.00523499
112.39 0.00513227
112.4 0.00485538
112.41 0.00441619
112.42 0.00383263
112.43 0.00312806
112.44 0.00232482
112.45 0.00146647
112.46 0.000587991
112.47 -0.000274467
112.48 -0.00108479
112.49 -0.00180816
112.5 -0.00241224
112.51 -0.00286837
112.52 -0.00314507
112.53 -0.00321948
112.54 -0.00309084
112.55 -0.00275568
112.56 -0.00221775
112.57 -0.00148799
112.58 -0.000584321
112.59 0.00046879
112.6 0.00164104
112.61 0.00290061
112.62 0.00419887
112.63 0.00549223
112.64 0.00673733
112.65 0.00789113
112.66 0.00891231
112.67 0.00976261
112.68 0.0104081
112.69 0.0108143
112.7 0.0109456
112.71 0.0108061
112.72 0.010391
112.73 0.00970405
112.74 0.00875714
112.75 0.00757043
112.76 0.00617169
112.77 0.00459571
112.78 0.00287763
112.79 0.00107317
112.8 -0.000763612
112.81 -0.00258097
112.82 -0.00432686
112.83 -0.00595045
112.84 -0.0074036
112.85 -0.00864234
112.86 -0.00962584
112.87 -0.0102975
112.88 -0.0106573
112.89 -0.0106915
112.9 -0.0103954
112.91 -0.00977312
112.92 -0.00883822
112.93 -0.00761279
112.94 -0.00612704
112.95 -0.00441005
112.96 -0.00251196
112.97 -0.000492608
112.98 0.00159526
112.99 0.0036972
113 0.00575866
113.01 0.0077265
113.02 0.00955049
113.03 0.0111847
113.04 0.0125659
113.05 0.0136771
113.06 0.0144961
113.07 0.015007
113.08 0.0152031
113.09 0.0150863
113.1 0.0146671
113.11 0.0139643
113.12 0.0129973
113.13 0.0117969
113.14 0.0104189
113.15 0.00890708
113.16 0.00730814
113.17 0.00566998
113.18 0.00404038
113.19 0.00246554
113.2 0.000988812
113.21 -0.000338294
113.22 -0.00148584
113.23 -0.00243076
113.24 -0.00315366
113.25 -0.00364255
113.26 -0.00389293
113.27 -0.00390781
113.28 -0.00369739
113.29 -0.00327557
113.3 -0.00265677
113.31 -0.0018861
113.32 -0.000996418
113.33 -2.32113e-05
113.34 0.000996584
113.35 0.00202582
113.36 0.00302832
113.37 0.00397005
113.38 0.00481346
113.39 0.00553085
113.4 0.00610528
113.41 0.00652169
113.42 0.00677095
113.43 0.00684997
113.44 0.00676163
113.45 0.00651449
113.46 0.00612229
113.47 0.00559383
113.48 0.00496553
113.49 0.00426316
113.5 0.00351423
113.51 0.00274696
113.52 0.00198925
113.53 0.00126772
113.54 0.000606793
113.55 3.18964e-05
113.56 -0.000436284
113.57 -0.000790069
113.58 -0.00102192
113.59 -0.00112919
113.6 -0.00111412
113.61 -0.000983587
113.62 -0.000748813
113.63 -0.00042479
113.64 -2.56464e-05
113.65 0.000421305
113.66 0.00089279
113.67 0.00136615
113.68 0.0018192
113.69 0.00223112
113.7 0.00258324
113.71 0.00285974
113.72 0.0030459
113.73 0.00312855
113.74 0.00311087
113.75 0.00299419
113.76 0.00278422
113.77 0.00249074
113.78 0.0021273
113.79 0.0017106
113.8 0.00125988
113.81 0.000796777
113.82 0.000346125
113.83 -6.98931e-05
113.84 -0.000430472
113.85 -0.000716705
113.86 -0.00091236
113.87 -0.00100456
113.88 -0.000984366
113.89 -0.000846095
113.9 -0.000581314
113.91 -0.000205894
113.92 0.000269765
113.93 0.000831002
113.94 0.00145936
113.95 0.00213318
113.96 0.00282841
113.97 0.00351936
113.98 0.00417687
113.99 0.00477178
114 0.00528134
114.01 0.00568368
114.02 0.00596026
114.03 0.00609658
114.04 0.00608286
114.05 0.00591445
114.06 0.00559219
114.07 0.00511055
114.08 0.00449534
114.09 0.00376578
114.1 0.00294475
114.11 0.00205901
114.12 0.00113843
114.13 0.000215007
114.14 -0.000678153
114.15 -0.00150474
114.16 -0.00222651
114.17 -0.0028186
114.18 -0.00325545
114.19 -0.00351599
114.2 -0.00358434
114.21 -0.00345049
114.22 -0.00311068
114.23 -0.00256772
114.24 -0.00181806
114.25 -0.000889678
114.26 0.000190199
114.27 0.00139345
114.28 0.00268761
114.29 0.00403689
114.3 0.00540323
114.31 0.00674748
114.32 0.00802888
114.33 0.00920015
114.34 0.0102322
114.35 0.0110948
114.36 0.0117625
114.37 0.0122156
114.38 0.012441
114.39 0.0124322
114.4 0.0121895
114.41 0.0117084
114.42 0.01101
114.43 0.0101244
114.44 0.00907874
114.45 0.00790445
114.46 0.00663643
114.47 0.00531177
114.48 0.00396857
114.49 0.00264482
114.5 0.00138521
114.51 0.000220227
114.52 -0.000821266
114.53 -0.00171537
114.54 -0.00244388
114.55 -0.00299482
114.56 -0.00336274
114.57 -0.00354886
114.58 -0.00355431
114.59 -0.00339352
114.6 -0.00309631
114.61 -0.00268784
114.62 -0.00219684
114.63 -0.00165449
114.64 -0.0010932
114.65 -0.000545415
114.66 -4.23517e-05
114.67 0.000379203
114.68 0.000697326
114.69 0.000893633
114.7 0.000954252
114.71 0.000871458
114.72 0.000644026
114.73 0.000277362
114.74 -0.000216615
114.75 -0.000821979
114.76 -0.00151552
114.77 -0.00226051
114.78 -0.00302401
114.79 -0.00377077
114.8 -0.00446448
114.81 -0.00506908
114.82 -0.00555014
114.83 -0.00587613
114.84 -0.00600632
114.85 -0.0059237
114.86 -0.00561948
114.87 -0.00508663
114.88 -0.00432571
114.89 -0.00334513
114.9 -0.00216107
114.91 -0.000797157
114.92 0.000717154
114.93 0.00234935
114.94 0.00404456
114.95 0.00575659
114.96 0.00743715
114.97 0.00903738
114.98 0.0105093
114.99 0.0118074
115 0.0128902
115.01 0.0137072
115.02 0.0142272
115.03 0.0144413
115.04 0.0143378
115.05 0.013914
115.06 0.0131762
115.07 0.0121401
115.08 0.0108299
115.09 0.00927799
115.1 0.00751016
115.11 0.00559361
115.12 0.00358071
115.13 0.00152561
115.14 -0.000516274
115.15 -0.00248993
115.16 -0.00434236
115.17 -0.00602414
115.18 -0.00748223
115.19 -0.00866832
115.2 -0.00956722
115.21 -0.0101589
115.22 -0.0104326
115.23 -0.0103866
115.24 -0.0100289
115.25 -0.00937617
115.26 -0.00845389
115.27 -0.00728054
115.28 -0.00591284
115.29 -0.0044015
115.3 -0.00279579
115.31 -0.00114694
115.32 0.000493474
115.33 0.00207508
115.34 0.00355021
115.35 0.00487184
115.36 0.00598762
115.37 0.00687953
115.38 0.00752522
115.39 0.0079104
115.4 0.00802918
115.41 0.00788406
115.42 0.00748572
115.43 0.00685251
115.44 0.00599946
115.45 0.00496672
115.46 0.003799
115.47 0.00253674
115.48 0.00122235
115.49 -0.000101185
115.5 -0.00139168
115.51 -0.00260906
115.52 -0.00371613
115.53 -0.00466529
115.54 -0.00544154
115.55 -0.00602545
115.56 -0.00640424
115.57 -0.00657199
115.58 -0.00652965
115.59 -0.00628478
115.6 -0.00585109
115.61 -0.00524177
115.62 -0.00448287
115.63 -0.00361162
115.64 -0.002659
115.65 -0.00165733
115.66 -0.000639156
115.67 0.000363799
115.68 0.00132171
115.69 0.00220755
115.7 0.00298852
115.71 0.00365109
115.72 0.00418331
115.73 0.0045771
115.74 0.00482954
115.75 0.00494272
115.76 0.00492351
115.77 0.00478303
115.78 0.00453379
115.79 0.00419226
115.8 0.00378588
115.81 0.00333616
115.82 0.00286487
115.83 0.0023932
115.84 0.00194095
115.85 0.00152586
115.86 0.001163
115.87 0.000869077
115.88 0.000650416
115.89 0.000508971
115.9 0.000444828
115.91 0.000454506
115.92 0.000531242
115.93 0.000665398
115.94 0.00084498
115.95 0.0010564
115.96 0.00128443
115.97 0.00151134
115.98 0.00172229
115.99 0.00190355
116 0.00204304
116.01 0.00213089
116.02 0.00215981
116.03 0.00212541
116.04 0.00202317
116.05 0.00185592
116.06 0.00163196
116.07 0.00135943
116.08 0.00104884
116.09 0.000712586
116.1 0.000364433
116.11 1.89142e-05
116.12 -0.00030927
116.13 -0.000601841
116.14 -0.000847494
116.15 -0.0010353
116.16 -0.00115643
116.17 -0.00120464
116.18 -0.00117656
116.19 -0.00107188
116.2 -0.000893333
116.21 -0.000644582
116.22 -0.000333995
116.23 2.29487e-05
116.24 0.000412859
116.25 0.000820949
116.26 0.00123161
116.27 0.00162899
116.28 0.00199765
116.29 0.00232311
116.3 0.00258743
116.31 0.00278206
116.32 0.00290035
116.33 0.00293734
116.34 0.00289107
116.35 0.00276265
116.36 0.00255618
116.37 0.00227858
116.38 0.00193833
116.39 0.00154564
116.4 0.00111852
116.41 0.000671413
116.42 0.000219108
116.43 -0.00022388
116.44 -0.000643889
116.45 -0.00102867
116.46 -0.00136791
116.47 -0.00165014
116.48 -0.00187109
116.49 -0.00203097
116.5 -0.00213104
116.51 -0.00217548
116.52 -0.00217119
116.53 -0.00212749
116.54 -0.00205572
116.55 -0.00196874
116.56 -0.00188159
116.57 -0.00180954
116.58 -0.00176618
116.59 -0.00176398
116.6 -0.00181363
116.61 -0.0019236
116.62 -0.0020996
116.63 -0.00234426
116.64 -0.00265963
116.65 -0.00304113
116.66 -0.00347697
116.67 -0.00395568
116.68 -0.00446298
116.69 -0.00498225
116.7 -0.00549505
116.71 -0.00598185
116.72 -0.00642272
116.73 -0.00679109
116.74 -0.00707179
116.75 -0.0072496
116.76 -0.0073113
116.77 -0.00724699
116.78 -0.00705062
116.79 -0.00672033
116.8 -0.00625867
116.81 -0.00566955
116.82 -0.00496173
116.83 -0.00415985
116.84 -0.00328384
116.85 -0.00235659
116.86 -0.00140321
116.87 -0.000450217
116.88 0.000475325
116.89 0.00134674
116.9 0.00213172
116.91 0.00280821
116.92 0.00335918
116.93 0.00376933
116.94 0.00402786
116.95 0.00412895
116.96 0.00407201
116.97 0.00386175
116.98 0.00350658
116.99 0.00301433
117 0.00241697
117.01 0.00173844
117.02 0.00100553
117.03 0.000246951
117.04 -0.000507644
117.05 -0.0012287
117.06 -0.0018878
117.07 -0.00245288
117.08 -0.00289921
117.09 -0.00321259
117.1 -0.00337979
117.11 -0.00339291
117.12 -0.00324978
117.13 -0.00295406
117.14 -0.00251516
117.15 -0.001948
117.16 -0.00126489
117.17 -0.000502245
117.18 0.00031104
117.19 0.00114411
117.2 0.00196487
117.21 0.0027411
117.22 0.00344159
117.23 0.0040373
117.24 0.00449685
117.25 0.00479315
117.26 0.00491866
117.27 0.00486385
117.28 0.00462536
117.29 0.00420627
117.3 0.00361606
117.31 0.00287035
117.32 0.00199048
117.33 0.000997071
117.34 -6.96912e-05
117.35 -0.00117344
117.36 -0.00227802
117.37 -0.00334672
117.38 -0.00434349
117.39 -0.00523416
117.4 -0.00598762
117.41 -0.00657308
117.42 -0.00695693
117.43 -0.00713713
117.44 -0.00710573
117.45 -0.00686167
117.46 -0.00641084
117.47 -0.00576592
117.48 -0.004946
117.49 -0.00397597
117.5 -0.0028806
117.51 -0.0017012
117.52 -0.000479087
117.53 0.000747117
117.54 0.00193872
117.55 0.00305823
117.56 0.00407065
117.57 0.00494457
117.58 0.00565233
117.59 0.00615544
117.6 0.0064557
117.61 0.00654649
117.62 0.00642819
117.63 0.00610811
117.64 0.00560016
117.65 0.00492441
117.66 0.0041063
117.67 0.00317236
117.68 0.00216007
117.69 0.00111086
117.7 6.13794e-05
117.71 -0.000952304
117.72 -0.00189595
117.73 -0.00273833
117.74 -0.00345226
117.75 -0.00401552
117.76 -0.00439676
117.77 -0.00459806
117.78 -0.00461911
117.79 -0.00446436
117.8 -0.00414463
117.81 -0.00367663
117.82 -0.00308235
117.83 -0.00238817
117.84 -0.00162284
117.85 -0.000820866
117.86 -1.98101e-05
117.87 0.000747572
117.88 0.0014502
117.89 0.0020598
117.9 0.00255197
117.91 0.00290704
117.92 0.00311078
117.93 0.00314397
117.94 0.00301208
117.95 0.00272521
117.96 0.00229534
117.97 0.00174004
117.98 0.00108186
117.99 0.000347451
118 -0.000433425
118.01 -0.00122876
118.02 -0.00200151
118.03 -0.00271915
118.04 -0.00335198
118.05 -0.00387347
118.06 -0.00426131
118.07 -0.00449828
118.08 -0.00457301
118.09 -0.00448044
118.1 -0.00421388
118.11 -0.00378524
118.12 -0.00321761
118.13 -0.00253301
118.14 -0.00175858
118.15 -0.00092571
118.16 -6.89162e-05
118.17 0.00077534
118.18 0.00156995
118.19 0.00226739
118.2 0.00283874
118.21 0.0032542
118.22 0.00348851
118.23 0.00352224
118.24 0.00334256
118.25 0.00294385
118.26 0.00232807
118.27 0.00149786
118.28 0.000469487
118.29 -0.000719302
118.3 -0.00203636
118.31 -0.00344425
118.32 -0.00490133
118.33 -0.00636309
118.34 -0.00778351
118.35 -0.00911652
118.36 -0.0103042
118.37 -0.0113091
118.38 -0.0120977
118.39 -0.0126396
118.4 -0.0129115
118.41 -0.0128977
118.42 -0.0125908
118.43 -0.0119923
118.44 -0.0111065
118.45 -0.00994116
118.46 -0.00854518
118.47 -0.00695386
118.48 -0.0052086
118.49 -0.00335557
118.5 -0.0014444
118.51 0.000473301
118.52 0.00234546
118.53 0.0041122
118.54 0.00572285
118.55 0.00713775
118.56 0.00831948
118.57 0.00923736
118.58 0.00986833
118.59 0.0101976
118.6 0.0102189
118.61 0.00993314
118.62 0.00932901
118.63 0.00845472
118.64 0.00733874
118.65 0.00601595
118.66 0.00452648
118.67 0.00291447
118.68 0.0012267
118.69 -0.000488785
118.7 -0.00218107
118.71 -0.00379815
118.72 -0.00529896
118.73 -0.00664564
118.74 -0.00780579
118.75 -0.00875334
118.76 -0.00946912
118.77 -0.00994131
118.78 -0.0101655
118.79 -0.010125
118.8 -0.00985018
118.81 -0.00936169
118.82 -0.00868338
118.83 -0.00784387
118.84 -0.00687549
118.85 -0.00581321
118.86 -0.00469347
118.87 -0.00355347
118.88 -0.00243355
118.89 -0.00136797
118.9 -0.000386867
118.91 0.00048363
118.92 0.001222
118.93 0.00181184
118.94 0.00224216
118.95 0.00250748
118.96 0.00259672
118.97 0.00252361
118.98 0.00230332
118.99 0.00195093
119 0.0014849
119.01 0.000926267
119.02 0.000297811
119.03 -0.000376768
119.04 -0.00107368
119.05 -0.00176764
119.06 -0.00243612
119.07 -0.00306041
119.08 -0.0036246
119.09 -0.004116
119.1 -0.00452538
119.11 -0.00484706
119.12 -0.0050789
119.13 -0.00521762
119.14 -0.00526957
119.15 -0.00524595
119.16 -0.00515643
119.17 -0.00501224
119.18 -0.00482553
119.19 -0.00460886
119.2 -0.00437455
119.21 -0.0041342
119.22 -0.00389941
119.23 -0.00367887
119.24 -0.00347886
119.25 -0.00330347
119.26 -0.00315452
119.27 -0.00303158
119.28 -0.00293216
119.29 -0.00285186
119.3 -0.002785
119.31 -0.00272365
119.32 -0.00265925
119.33 -0.00258382
119.34 -0.00248976
119.35 -0.0023703
119.36 -0.00221997
119.37 -0.0020349
119.38 -0.0018132
119.39 -0.00155253
119.4 -0.00125824
119.41 -0.000936349
119.42 -0.000594451
119.43 -0.000242098
119.44 0.000109495
119.45 0.000447834
119.46 0.000759607
119.47 0.00102997
119.48 0.00124147
119.49 0.00138484
119.5 0.00144922
119.51 0.00142573
119.52 0.00130789
119.53 0.00109202
119.54 0.000777455
119.55 0.000366789
119.56 -0.000139112
119.57 -0.00072702
119.58 -0.00138117
119.59 -0.00208603
119.6 -0.00282383
119.61 -0.00357502
119.62 -0.00431889
119.63 -0.00503422
119.64 -0.00569941
119.65 -0.00628665
119.66 -0.00678229
119.67 -0.0071703
119.68 -0.00743751
119.69 -0.0075741
119.7 -0.00757395
119.71 -0.00743495
119.72 -0.00715907
119.73 -0.0067469
119.74 -0.00621017
119.75 -0.0055699
119.76 -0.00484411
119.77 -0.00405361
119.78 -0.00322134
119.79 -0.00237174
119.8 -0.00153
119.81 -0.000721286
119.82 2.30726e-05
119.83 0.000682987
119.84 0.00123899
119.85 0.00167411
119.86 0.00197496
119.87 0.0021321
119.88 0.00214037
119.89 0.00199905
119.9 0.00170769
119.91 0.00127131
119.92 0.000712341
119.93 4.7617e-05
119.94 -0.000702908
119.95 -0.00151675
119.96 -0.00236958
119.97 -0.00323595
119.98 -0.00409007
119.99 -0.00490219
120 -0.00564765
120.01 -0.00630576
120.02 -0.0068576
120.03 -0.00728754
120.04 -0.00758369
120.05 -0.00773824
120.06 -0.00774768
120.07 -0.00761074
120.08 -0.00732465
120.09 -0.00691105
120.1 -0.00638388
120.11 -0.00576032
120.12 -0.00506029
120.13 -0.00430579
120.14 -0.00352023
120.15 -0.00272772
120.16 -0.00195457
120.17 -0.00122645
120.18 -0.000563935
120.19 1.39026e-05
120.2 0.000490811
120.21 0.000853833
120.22 0.00109366
120.23 0.00120489
120.24 0.00118615
120.25 0.00102874
120.26 0.000752305
120.27 0.00036799
120.28 -0.000109903
120.29 -0.000664297
120.3 -0.00127589
120.31 -0.00192376
120.32 -0.00258598
120.33 -0.00323914
120.34 -0.00385831
120.35 -0.0044236
120.36 -0.00491633
120.37 -0.00532015
120.38 -0.00562153
120.39 -0.00581014
120.4 -0.00587913
120.41 -0.00582532
120.42 -0.00564005
120.43 -0.00533618
120.44 -0.00492431
120.45 -0.0044163
120.46 -0.00382685
120.47 -0.00317306
120.48 -0.00247391
120.49 -0.00174973
120.5 -0.00102197
120.51 -0.000314869
120.52 0.00035113
120.53 0.000956913
120.54 0.00148519
120.55 0.00192096
120.56 0.00225199
120.57 0.00246908
120.58 0.00256636
120.59 0.00253385
120.6 0.00237715
120.61 0.00210557
120.62 0.00172785
120.63 0.00125575
120.64 0.000703685
120.65 8.83731e-05
120.66 -0.000571703
120.67 -0.00125681
120.68 -0.00194481
120.69 -0.00261327
120.7 -0.0032423
120.71 -0.00381312
120.72 -0.00430862
120.73 -0.00471382
120.74 -0.00501629
120.75 -0.00520643
120.76 -0.00527201
120.77 -0.00520991
120.78 -0.00502677
120.79 -0.0047269
120.8 -0.00431781
120.81 -0.00380998
120.82 -0.0032166
120.83 -0.00255317
120.84 -0.0018371
120.85 -0.00108605
120.86 -0.000324247
120.87 0.000427853
120.88 0.00115031
120.89 0.00182394
120.9 0.00243082
120.91 0.00295471
120.92 0.00338147
120.93 0.00369561
120.94 0.00388375
120.95 0.00394739
120.96 0.00388413
120.97 0.00369459
120.98 0.00338236
120.99 0.00295384
121 0.00241807
121.01 0.00178641
121.02 0.00106744
121.03 0.000281883
121.04 -0.000551913
121.05 -0.00141679
121.06 -0.00229532
121.07 -0.00317026
121.08 -0.00402491
121.09 -0.00484353
121.1 -0.00561063
121.11 -0.00630824
121.12 -0.00692991
121.13 -0.00746709
121.14 -0.00791343
121.15 -0.00826472
121.16 -0.00851897
121.17 -0.00867629
121.18 -0.00873879
121.19 -0.00870567
121.2 -0.00858485
121.21 -0.00838707
121.22 -0.00812061
121.23 -0.00779454
121.24 -0.00741846
121.25 -0.00700221
121.26 -0.00655567
121.27 -0.00608852
121.28 -0.00560978
121.29 -0.0051298
121.3 -0.00465642
121.31 -0.00419665
121.32 -0.00375669
121.33 -0.00334183
121.34 -0.00295653
121.35 -0.00260441
121.36 -0.00228987
121.37 -0.0020158
121.38 -0.00178162
121.39 -0.00158821
121.4 -0.00143598
121.41 -0.00132496
121.42 -0.00125482
121.43 -0.00122491
121.44 -0.00123424
121.45 -0.0012844
121.46 -0.00137105
121.47 -0.00149144
121.48 -0.00164293
121.49 -0.00182229
121.5 -0.0020257
121.51 -0.00224868
121.52 -0.00248601
121.53 -0.00273178
121.54 -0.00297855
121.55 -0.00321826
121.56 -0.00344276
121.57 -0.00364343
121.58 -0.00381131
121.59 -0.00393735
121.6 -0.00401261
121.61 -0.00402854
121.62 -0.00397254
121.63 -0.00383945
121.64 -0.00362618
121.65 -0.0033293
121.66 -0.00294736
121.67 -0.0024812
121.68 -0.00193409
121.69 -0.0013119
121.7 -0.000622725
121.71 0.000125043
121.72 0.000911412
121.73 0.00171961
121.74 0.0025308
121.75 0.00332451
121.76 0.00407901
121.77 0.00477197
121.78 0.00538093
121.79 0.0058779
121.8 0.00624011
121.81 0.0064545
121.82 0.00650576
121.83 0.00638201
121.84 0.0060753
121.85 0.00558212
121.86 0.00490371
121.87 0.00404636
121.88 0.00300824
121.89 0.00182165
121.9 0.000510185
121.91 -0.000899261
121.92 -0.00237595
121.93 -0.00388596
121.94 -0.00539303
121.95 -0.00685945
121.96 -0.00824319
121.97 -0.00949914
121.98 -0.0105973
121.99 -0.0115055
122 -0.0121958
122.01 -0.0126451
122.02 -0.0128364
122.03 -0.012759
122.04 -0.0124095
122.05 -0.0117731
122.06 -0.0108768
122.07 -0.00974712
122.08 -0.00841129
122.09 -0.00690301
122.1 -0.00526144
122.11 -0.00353031
122.12 -0.00175666
122.13 9.29794e-06
122.14 0.00170905
122.15 0.00329499
122.16 0.00472096
122.17 0.00594475
122.18 0.00692946
122.19 0.0076446
122.2 0.00806715
122.21 0.00818236
122.22 0.00796679
122.23 0.00743128
122.24 0.00660236
122.25 0.0055036
122.26 0.00416685
122.27 0.00263142
122.28 0.000943057
122.29 -0.000847411
122.3 -0.00268545
122.31 -0.00450823
122.32 -0.00625544
122.33 -0.00787215
122.34 -0.00930692
122.35 -0.0105134
122.36 -0.0114518
122.37 -0.0120901
122.38 -0.0124052
122.39 -0.0123699
122.4 -0.0119777
122.41 -0.0112562
122.42 -0.0102256
122.43 -0.00891516
122.44 -0.0073635
122.45 -0.00561673
122.46 -0.00372746
122.47 -0.0017531
122.48 0.0002427
122.49 0.00219082
122.5 0.00403028
122.51 0.00570339
122.52 0.00715722
122.53 0.00834532
122.54 0.00922911
122.55 0.00977917
122.56 0.00996693
122.57 0.00976833
122.58 0.00921303
122.59 0.00831707
122.6 0.00710694
122.61 0.00561886
122.62 0.00389761
122.63 0.00199518
122.64 -3.07925e-05
122.65 -0.00211863
122.66 -0.00419577
122.67 -0.00619759
122.68 -0.00806363
122.69 -0.00973783
122.7 -0.0111703
122.71 -0.0123187
122.72 -0.0131499
122.73 -0.0136371
122.74 -0.0137412
122.75 -0.0134924
122.76 -0.012903
122.77 -0.0119956
122.78 -0.0108028
122.79 -0.00936568
122.8 -0.0077329
122.81 -0.00595873
122.82 -0.0041005
122.83 -0.00222668
122.84 -0.000400923
122.85 0.00131887
122.86 0.00287895
122.87 0.00423146
122.88 0.00533588
122.89 0.00616031
122.9 0.00668247
122.91 0.00686223
122.92 0.00672586
122.93 0.00628661
122.94 0.00556589
122.95 0.00459429
122.96 0.00341045
122.97 0.0020597
122.98 0.000592532
122.99 -0.000937274
123 -0.00246787
123.01 -0.00394116
123.02 -0.00530504
123.03 -0.00651179
123.04 -0.00751966
123.05 -0.00829423
123.06 -0.00880951
123.07 -0.00904879
123.08 -0.00898464
123.09 -0.0086366
123.1 -0.00802579
123.11 -0.00717639
123.12 -0.00612082
123.13 -0.00489858
123.14 -0.00355486
123.15 -0.00213901
123.16 -0.000703435
123.17 0.000692041
123.18 0.00199574
123.19 0.00316025
123.2 0.00414305
123.21 0.00490795
123.22 0.00542629
123.23 0.00567781
123.24 0.00565138
123.25 0.0053296
123.26 0.00472822
123.27 0.00387645
123.28 0.00280153
123.29 0.00153799
123.3 0.000126531
123.31 -0.00138744
123.32 -0.0029553
123.33 -0.00452675
123.34 -0.00604295
123.35 -0.00745678
123.36 -0.00872445
123.37 -0.00980737
123.38 -0.0106734
123.39 -0.0112976
123.4 -0.0116634
123.41 -0.0117627
123.42 -0.0115852
123.43 -0.0111396
123.44 -0.0104588
123.45 -0.00956927
123.46 -0.00850326
123.47 -0.00729817
123.48 -0.00599499
123.49 -0.00463683
123.5 -0.00326747
123.51 -0.00193579
123.52 -0.000683371
123.53 0.000454404
123.54 0.00144681
123.55 0.00226919
123.56 0.00290364
123.57 0.0033395
123.58 0.00357348
123.59 0.0036047
123.6 0.00343844
123.61 0.00310691
123.62 0.00263421
123.63 0.00204876
123.64 0.00138202
123.65 0.000667321
123.66 -6.15229e-05
123.67 -0.000771473
123.68 -0.00142637
123.69 -0.0019979
123.7 -0.0024652
123.71 -0.00281111
123.72 -0.00302427
123.73 -0.00309945
123.74 -0.00303761
123.75 -0.00284577
123.76 -0.00253553
123.77 -0.00211957
123.78 -0.0016303
123.79 -0.00109343
123.8 -0.000536525
123.81 1.22245e-05
123.82 0.000525177
123.83 0.000976432
123.84 0.00134294
123.85 0.0015995
123.86 0.00173115
123.87 0.00173476
123.88 0.00160839
123.89 0.0013561
123.9 0.000987831
123.91 0.000519079
123.92 -2.96651e-05
123.93 -0.000633691
123.94 -0.00126475
123.95 -0.0018877
123.96 -0.00247134
123.97 -0.00298526
123.98 -0.00340093
123.99 -0.00369295
124 -0.00384016
124.01 -0.00382658
124.02 -0.00363617
124.03 -0.00326161
124.04 -0.00271836
124.05 -0.00201856
124.06 -0.00118108
124.07 -0.000230999
124.08 0.000801124
124.09 0.00188024
124.1 0.00296793
124.11 0.00401825
124.12 0.00498787
124.13 0.00583771
124.14 0.00653068
124.15 0.00703378
124.16 0.00731936
124.17 0.00736626
124.18 0.00716073
124.19 0.0066922
124.2 0.00595046
124.21 0.00496853
124.22 0.00376835
124.23 0.00237971
124.24 0.000839444
124.25 -0.000809581
124.26 -0.00251978
124.27 -0.00424028
124.28 -0.00591282
124.29 -0.00747984
124.3 -0.00889283
124.31 -0.0101053
124.32 -0.0110761
124.33 -0.0117707
124.34 -0.0121624
124.35 -0.0122335
124.36 -0.0119744
124.37 -0.0113591
124.38 -0.0104316
124.39 -0.00921506
124.4 -0.00774186
124.41 -0.00605224
124.42 -0.00419326
124.43 -0.00221738
124.44 -0.000180905
124.45 0.00185517
124.46 0.00382434
124.47 0.00567017
124.48 0.00733959
124.49 0.00878473
124.5 0.0099644
124.51 0.0108453
124.52 0.0114028
124.53 0.0116221
124.54 0.0114701
124.55 0.0109783
124.56 0.0101677
124.57 0.00906444
124.58 0.00770281
124.59 0.00612413
124.6 0.00437547
124.61 0.00250811
124.62 0.000575778
124.63 -0.00136087
124.64 -0.00324434
124.65 -0.00502373
124.66 -0.0066524
124.67 -0.00808928
124.68 -0.00930003
124.69 -0.0102579
124.7 -0.0109444
124.71 -0.0113307
124.72 -0.0114279
124.73 -0.0112529
124.74 -0.010823
124.75 -0.0101624
124.76 -0.00930149
124.77 -0.00827556
124.78 -0.00712369
124.79 -0.00588684
124.8 -0.00460867
124.81 -0.00333715
124.82 -0.00211164
124.83 -0.000968137
124.84 6.17786e-05
124.85 0.000951862
124.86 0.00168186
124.87 0.00223799
124.88 0.00260386
124.89 0.00278142
124.9 0.00278606
124.91 0.00263125
124.92 0.00233564
124.93 0.00192225
124.94 0.00141752
124.95 0.000850279
124.96 0.000250641
124.97 -0.000348597
124.98 -0.000915743
124.99 -0.00142393
125 -0.00184934
125.01 -0.00217193
125.02 -0.00237603
125.03 -0.00245076
125.04 -0.00239028
125.05 -0.00218914
125.06 -0.00184964
125.07 -0.00138974
125.08 -0.000823497
125.09 -0.000168481
125.1 0.000554947
125.11 0.0013244
125.12 0.00211629
125.13 0.00290664
125.14 0.00366827
125.15 0.00437832
125.16 0.00501739
125.17 0.0055682
125.18 0.00601652
125.19 0.00635151
125.2 0.00656595
125.21 0.00665624
125.22 0.00661997
125.23 0.00645477
125.24 0.00617705
125.25 0.00579667
125.26 0.00532561
125.27 0.0047775
125.28 0.00416708
125.29 0.00350967
125.3 0.00282065
125.31 0.0021149
125.32 0.00140848
125.33 0.000714589
125.34 4.44409e-05
125.35 -0.000592392
125.36 -0.00118804
125.37 -0.00173633
125.38 -0.00223269
125.39 -0.00267377
125.4 -0.00305279
125.41 -0.00337414
125.42 -0.0036379
125.43 -0.00384461
125.44 -0.00399501
125.45 -0.00408982
125.46 -0.00412963
125.47 -0.00411471
125.48 -0.00404261
125.49 -0.00391256
125.5 -0.00372672
125.51 -0.00348441
125.52 -0.00318515
125.53 -0.00282883
125.54 -0.00241601
125.55 -0.00194818
125.56 -0.00142804
125.57 -0.000856192
125.58 -0.00024273
125.59 0.000403798
125.6 0.0010735
125.61 0.00175466
125.62 0.00243383
125.63 0.00309608
125.64 0.00372528
125.65 0.00430258
125.66 0.00480624
125.67 0.00522281
125.68 0.00553634
125.69 0.00573242
125.7 0.00579878
125.71 0.00572586
125.72 0.00550735
125.73 0.0051406
125.74 0.0046174
125.75 0.00395075
125.76 0.00315558
125.77 0.00224722
125.78 0.00124507
125.79 0.000172195
125.8 -0.00094519
125.81 -0.00207835
125.82 -0.00319616
125.83 -0.00426086
125.84 -0.00524288
125.85 -0.00611234
125.86 -0.00684159
125.87 -0.00740615
125.88 -0.00778557
125.89 -0.00796421
125.9 -0.00793184
125.91 -0.00767301
125.92 -0.00719296
125.93 -0.0065106
125.94 -0.00564192
125.95 -0.00460882
125.96 -0.00343855
125.97 -0.00216298
125.98 -0.000817738
125.99 0.000558801
126 0.00192212
126.01 0.00322943
126.02 0.00444165
126.03 0.00552204
126.04 0.00643744
126.05 0.00715932
126.06 0.00766476
126.07 0.00793717
126.08 0.00795796
126.09 0.00772042
126.1 0.00724569
126.11 0.00654817
126.12 0.00564923
126.13 0.00457663
126.14 0.00336365
126.15 0.00204813
126.16 0.000671328
126.17 -0.00072132
126.18 -0.0020804
126.19 -0.00336253
126.2 -0.00452691
126.21 -0.00553638
126.22 -0.00635859
126.23 -0.00696703
126.24 -0.0073419
126.25 -0.00746543
126.26 -0.00732023
126.27 -0.00692956
126.28 -0.00630631
126.29 -0.00547071
126.3 -0.00444972
126.31 -0.00327616
126.32 -0.00198767
126.33 -0.000625539
126.34 0.00076565
126.35 0.00213551
126.36 0.00343949
126.37 0.00463615
126.38 0.00568755
126.39 0.00656051
126.4 0.00722757
126.41 0.00766787
126.42 0.00786639
126.43 0.00779675
126.44 0.00748408
126.45 0.00693955
126.46 0.0061815
126.47 0.0052348
126.48 0.00413003
126.49 0.00290243
126.5 0.00159079
126.51 0.0002362
126.52 -0.00111403
126.53 -0.00241677
126.54 -0.00363282
126.55 -0.00472621
126.56 -0.00566533
126.57 -0.00642386
126.58 -0.00698148
126.59 -0.00732446
126.6 -0.00742729
126.61 -0.00730782
126.62 -0.00697687
126.63 -0.00644948
126.64 -0.00574641
126.65 -0.00489341
126.66 -0.00392027
126.67 -0.00285978
126.68 -0.00174613
126.69 -0.000618085
126.7 0.000486719
126.71 0.00153564
126.72 0.00249894
126.73 0.00335071
126.74 0.00406959
126.75 0.00463936
126.76 0.00504931
126.77 0.00528315
126.78 0.00534966
126.79 0.00526055
126.8 0.00502824
126.81 0.00466954
126.82 0.00420488
126.83 0.00365749
126.84 0.00305244
126.85 0.0024157
126.86 0.00177538
126.87 0.00115823
126.88 0.000586608
126.89 8.00239e-05
126.9 -0.000345554
126.91 -0.000678163
126.92 -0.000910178
126.93 -0.00103847
126.94 -0.00105927
126.95 -0.000980748
126.96 -0.000817601
126.97 -0.000583649
126.98 -0.000295386
126.99 2.87446e-05
127 0.000369151
127.01 0.000705917
127.02 0.00101963
127.03 0.00128689
127.04 0.00149457
127.05 0.00163021
127.06 0.00168463
127.07 0.00165246
127.08 0.00153229
127.09 0.00132683
127.1 0.00104274
127.11 0.000688451
127.12 0.000278797
127.13 -0.000165179
127.14 -0.000624169
127.15 -0.00107754
127.16 -0.00150414
127.17 -0.0018831
127.18 -0.00219461
127.19 -0.00242077
127.2 -0.00253752
127.21 -0.00253824
127.22 -0.00241731
127.23 -0.0021716
127.24 -0.00180243
127.25 -0.00131562
127.26 -0.000721383
127.27 -3.41193e-05
127.28 0.000729164
127.29 0.00154708
127.3 0.00238992
127.31 0.00323153
127.32 0.00404494
127.33 0.00480321
127.34 0.00548028
127.35 0.00605185
127.36 0.00649615
127.37 0.00678476
127.38 0.00690628
127.39 0.00685651
127.4 0.00663127
127.41 0.00623146
127.42 0.00566309
127.43 0.00493718
127.44 0.00406948
127.45 0.00307949
127.46 0.00198589
127.47 0.000826821
127.48 -0.000367731
127.49 -0.00156638
127.5 -0.00273717
127.51 -0.00384849
127.52 -0.00486989
127.53 -0.00577292
127.54 -0.00652421
127.55 -0.00709884
127.56 -0.00748683
127.57 -0.00767573
127.58 -0.00765804
127.59 -0.00743138
127.6 -0.00699858
127.61 -0.00636753
127.62 -0.00555105
127.63 -0.00455393
127.64 -0.00341293
127.65 -0.00215524
127.66 -0.00080928
127.67 0.000594521
127.68 0.00202444
127.69 0.00344822
127.7 0.00483386
127.71 0.00614728
127.72 0.00735269
127.73 0.0084285
127.74 0.00935146
127.75 0.0101019
127.76 0.0106642
127.77 0.0110268
127.78 0.0111828
127.79 0.01113
127.8 0.0108564
127.81 0.0103797
127.82 0.00971673
127.83 0.00888352
127.84 0.00789951
127.85 0.00678725
127.86 0.00557191
127.87 0.00428072
127.88 0.00294214
127.89 0.00158773
127.9 0.000250646
127.91 -0.0010399
127.92 -0.00225584
127.93 -0.00337083
127.94 -0.0043608
127.95 -0.00520446
127.96 -0.00588371
127.97 -0.00637377
127.98 -0.0066659
127.99 -0.00676199
128 -0.00666099
128.01 -0.00636628
128.02 -0.00588556
128.03 -0.00523078
128.04 -0.00441788
128.05 -0.00346651
128.06 -0.0023912
128.07 -0.00123096
128.08 -1.43785e-05
128.09 0.0012285
128.1 0.0024668
128.11 0.00366946
128.12 0.004806
128.13 0.00584724
128.14 0.00676023
128.15 0.00751542
128.16 0.00809956
128.17 0.00849646
128.18 0.00869445
128.19 0.00868676
128.2 0.00847181
128.21 0.00805331
128.22 0.00744031
128.23 0.00663449
128.24 0.00566883
128.25 0.00457101
128.26 0.00336969
128.27 0.00209677
128.28 0.000786594
128.29 -0.000524901
128.3 -0.00180107
128.31 -0.003003
128.32 -0.00408675
128.33 -0.00502558
128.34 -0.00579059
128.35 -0.0063571
128.36 -0.00670537
128.37 -0.00682124
128.38 -0.00669658
128.39 -0.00632966
128.4 -0.00571115
128.41 -0.00486189
128.42 -0.00380853
128.43 -0.00257597
128.44 -0.00119434
128.45 0.000301772
128.46 0.00187422
128.47 0.00348228
128.48 0.00508333
128.49 0.00662674
128.5 0.00807239
128.51 0.00938127
128.52 0.0105178
128.53 0.0114507
128.54 0.0121544
128.55 0.0126089
128.56 0.0128013
128.57 0.012713
128.58 0.0123464
128.59 0.0117246
128.6 0.010865
128.61 0.0097914
128.62 0.00853359
128.63 0.00712633
128.64 0.00560845
128.65 0.00402176
128.66 0.00241155
128.67 0.000827644
128.68 -0.00068678
128.69 -0.00209099
128.7 -0.00334766
128.71 -0.00442395
128.72 -0.0052924
128.73 -0.00593166
128.74 -0.00631919
128.75 -0.00643951
128.76 -0.00630952
128.77 -0.00593776
128.78 -0.00533958
128.79 -0.00453662
128.8 -0.00355607
128.81 -0.00242986
128.82 -0.00119366
128.83 0.000116451
128.84 0.00145316
128.85 0.002775
128.86 0.00404332
128.87 0.0052218
128.88 0.00627749
128.89 0.00718173
128.9 0.0079109
128.91 0.00844376
128.92 0.00875502
128.93 0.00885599
128.94 0.00874893
128.95 0.00844218
128.96 0.00794978
128.97 0.0072909
128.98 0.00648915
128.99 0.00557171
129 0.00456553
129.01 0.00350746
129.02 0.00243295
129.03 0.00137363
129.04 0.000359598
129.05 -0.000581454
129.06 -0.00142501
129.07 -0.00215039
129.08 -0.00274119
129.09 -0.00317137
129.1 -0.00344823
129.11 -0.00357105
129.12 -0.00354381
129.13 -0.00337487
129.14 -0.00307656
129.15 -0.00266456
129.16 -0.00215732
129.17 -0.00157322
129.18 -0.000935974
129.19 -0.000271727
129.2 0.000397726
129.21 0.00105172
129.22 0.00167132
129.23 0.00223988
129.24 0.00274342
129.25 0.00317099
129.26 0.00350783
129.27 0.00375492
129.28 0.00391305
129.29 0.00398472
129.3 0.00397515
129.31 0.00389192
129.32 0.00374455
129.33 0.00354402
129.34 0.00330158
129.35 0.00302971
129.36 0.0027435
129.37 0.00245466
129.38 0.00217398
129.39 0.00191097
129.4 0.00167364
129.41 0.00146836
129.42 0.00129975
129.43 0.00117336
129.44 0.00108912
129.45 0.00104535
129.46 0.00104041
129.47 0.00107172
129.48 0.00113612
129.49 0.00123006
129.5 0.00134998
129.51 0.00149266
129.52 0.00165643
129.53 0.00183721
129.54 0.00203353
129.55 0.00224467
129.56 0.00247063
129.57 0.00271201
129.58 0.00296985
129.59 0.0032454
129.6 0.00354085
129.61 0.00385713
129.62 0.00419342
129.63 0.00454886
129.64 0.00492132
129.65 0.00530723
129.66 0.00570143
129.67 0.00609706
129.68 0.00648558
129.69 0.00685431
129.7 0.00719186
129.71 0.00748541
129.72 0.0077213
129.73 0.00788558
129.74 0.00796458
129.75 0.00794539
129.76 0.00781641
129.77 0.00756386
129.78 0.00717628
129.79 0.00665766
129.8 0.00600796
129.81 0.00523094
129.82 0.00433434
129.83 0.00332993
129.84 0.0022335
129.85 0.00106459
129.86 -0.000155416
129.87 -0.00139511
129.88 -0.00262469
129.89 -0.00381401
129.9 -0.00493231
129.91 -0.00594919
129.92 -0.00683544
129.93 -0.00756403
129.94 -0.00810754
129.95 -0.00843205
129.96 -0.00853772
129.97 -0.00841579
129.98 -0.00806338
129.99 -0.00748375
130 -0.00668643
130.01 -0.00568707
130.02 -0.0045072
130.03 -0.00316691
130.04 -0.00170497
130.05 -0.000163391
130.06 0.00141887
130.07 0.00300132
130.08 0.00454303
130.09 0.00600389
130.1 0.00734574
130.11 0.00853329
130.12 0.00951629
130.13 0.0102853
130.14 0.0108221
130.15 0.0111153
130.16 0.0111603
130.17 0.0109602
130.18 0.0105247
130.19 0.00987079
130.2 0.00901492
130.21 0.00798799
130.22 0.00683486
130.23 0.00559348
130.24 0.00430398
130.25 0.00300748
130.26 0.00174475
130.27 0.000554953
130.28 -0.000525558
130.29 -0.0014508
130.3 -0.00220109
130.31 -0.00275838
130.32 -0.00310917
130.33 -0.0032469
130.34 -0.0031721
130.35 -0.00289232
130.36 -0.0024218
130.37 -0.00177735
130.38 -0.000981868
130.39 -7.8168e-05
130.4 0.000899354
130.41 0.00191434
130.42 0.0029297
130.43 0.00390887
130.44 0.00481704
130.45 0.00562227
130.46 0.00628659
130.47 0.00678976
130.48 0.0071197
130.49 0.00726659
130.5 0.00722709
130.51 0.00700439
130.52 0.00660803
130.53 0.00605347
130.54 0.00536041
130.55 0.00454868
130.56 0.00365922
130.57 0.00272384
130.58 0.00177542
130.59 0.000846746
130.6 -3.06694e-05
130.61 -0.000827673
130.62 -0.0015185
130.63 -0.00207452
130.64 -0.00247837
130.65 -0.00272637
130.66 -0.00281491
130.67 -0.00274631
130.68 -0.00252877
130.69 -0.00217595
130.7 -0.00170642
130.71 -0.00114293
130.72 -0.000508054
130.73 0.000161645
130.74 0.000836163
130.75 0.00148611
130.76 0.00208343
130.77 0.00260246
130.78 0.00302092
130.79 0.00332073
130.8 0.00348404
130.81 0.00349907
130.82 0.00337335
130.83 0.00311212
130.84 0.00272626
130.85 0.00223191
130.86 0.00164994
130.87 0.00100513
130.88 0.000325353
130.89 -0.000357597
130.9 -0.00100956
130.91 -0.00160017
130.92 -0.00210079
130.93 -0.0024855
130.94 -0.00273216
130.95 -0.00282324
130.96 -0.00274654
130.97 -0.0024926
130.98 -0.00205178
130.99 -0.00144517
131 -0.00068663
131.01 0.000204219
131.02 0.00120255
131.03 0.00227914
131.04 0.00340125
131.05 0.00453369
131.06 0.00563634
131.07 0.006669
131.08 0.00759789
131.09 0.00839074
131.1 0.00901901
131.11 0.00945889
131.12 0.00969214
131.13 0.00970668
131.14 0.00949662
131.15 0.00904431
131.16 0.00838055
131.17 0.00752204
131.18 0.00649162
131.19 0.00531761
131.2 0.00403293
131.21 0.00267407
131.22 0.00128005
131.23 -0.000106883
131.24 -0.00144102
131.25 -0.0026843
131.26 -0.00380086
131.27 -0.00475862
131.28 -0.00553031
131.29 -0.00609424
131.3 -0.00643494
131.31 -0.00654363
131.32 -0.00639981
131.33 -0.006026
131.34 -0.00543856
131.35 -0.0046569
131.36 -0.00370597
131.37 -0.00261539
131.38 -0.00141855
131.39 -0.000151564
131.4 0.00114766
131.41 0.00243649
131.42 0.003676
131.43 0.00483123
131.44 0.00587027
131.45 0.00676524
131.46 0.007493
131.47 0.0080357
131.48 0.0083813
131.49 0.00851034
131.5 0.00843114
131.51 0.00815677
131.52 0.00769986
131.53 0.00707798
131.54 0.006313
131.55 0.00543027
131.56 0.00445784
131.57 0.00342521
131.58 0.00236399
131.59 0.00130912
131.6 0.000289742
131.61 -0.000667077
131.62 -0.00153701
131.63 -0.00229907
131.64 -0.00293613
131.65 -0.00343521
131.66 -0.00378017
131.67 -0.00396775
131.68 -0.0040057
131.69 -0.00389928
131.7 -0.00365742
131.71 -0.00329229
131.72 -0.00281879
131.73 -0.0022539
131.74 -0.00161613
131.75 -0.00092179
131.76 -0.000196584
131.77 0.0005402
131.78 0.00127057
131.79 0.00197801
131.8 0.00264788
131.81 0.00326769
131.82 0.0038273
131.83 0.00431647
131.84 0.00472774
131.85 0.00506294
131.86 0.00532188
131.87 0.00550635
131.88 0.00561974
131.89 0.0056668
131.9 0.00565327
131.91 0.00558557
131.92 0.0054674
131.93 0.00530873
131.94 0.00511691
131.95 0.00489786
131.96 0.00465679
131.97 0.00439817
131.98 0.00412565
131.99 0.00384207
132 0.00354939
132.01 0.00324877
132.02 0.00294177
132.03 0.00262904
132.04 0.00231114
132.05 0.00198877
132.06 0.0016629
132.07 0.001335
132.08 0.00100711
132.09 0.000682379
132.1 0.000364759
132.11 5.85976e-05
132.12 -0.000230938
132.13 -0.000498068
132.14 -0.000736543
132.15 -0.000939821
132.16 -0.00110128
132.17 -0.00121428
132.18 -0.00126746
132.19 -0.00126012
132.2 -0.00118805
132.21 -0.00104823
132.22 -0.000839018
132.23 -0.000560348
132.24 -0.000213805
132.25 0.000197301
132.26 0.000670169
132.27 0.00119748
132.28 0.00176752
132.29 0.00237026
132.3 0.00299449
132.31 0.00362812
132.32 0.00425845
132.33 0.00487249
132.34 0.00545727
132.35 0.00599578
132.36 0.00647814
132.37 0.00689432
132.38 0.00723511
132.39 0.00749292
132.4 0.00766199
132.41 0.00773848
132.42 0.00772065
132.43 0.00760636
132.44 0.0073949
132.45 0.00709754
132.46 0.0067211
132.47 0.0062741
132.48 0.00576659
132.49 0.00520985
132.5 0.00461616
132.51 0.00399851
132.52 0.00337051
132.53 0.00274752
132.54 0.00214301
132.55 0.00156966
132.56 0.00103936
132.57 0.000562945
132.58 0.000149992
132.59 -0.000191348
132.6 -0.000453547
132.61 -0.000625537
132.62 -0.000711265
132.63 -0.000709974
132.64 -0.000622779
132.65 -0.000452648
132.66 -0.000204351
132.67 0.000115617
132.68 0.000499134
132.69 0.00093876
132.7 0.00142159
132.71 0.00193297
132.72 0.00245965
132.73 0.00298766
132.74 0.00350262
132.75 0.00398997
132.76 0.00443523
132.77 0.00482431
132.78 0.00513636
132.79 0.00536417
132.8 0.00549723
132.81 0.0055264
132.82 0.00544451
132.83 0.00524653
132.84 0.00492989
132.85 0.00449463
132.86 0.00393966
132.87 0.00326911
132.88 0.00249908
132.89 0.00164169
132.9 0.000711844
132.91 -0.000273003
132.92 -0.00129311
132.93 -0.00232678
132.94 -0.00335078
132.95 -0.00433638
132.96 -0.00525821
132.97 -0.00609237
132.98 -0.00681514
132.99 -0.00740432
133 -0.00783984
133.01 -0.00810444
133.02 -0.00818423
133.03 -0.0080652
133.04 -0.00773069
133.05 -0.00719556
133.06 -0.00646507
133.07 -0.0055496
133.08 -0.00446455
133.09 -0.00323023
133.1 -0.00187145
133.11 -0.000417141
133.12 0.00110191
133.13 0.0026447
133.14 0.00417178
133.15 0.00564511
133.16 0.00702687
133.17 0.00828053
133.18 0.00937188
133.19 0.01027
133.2 0.0109471
133.21 0.0113594
133.22 0.0115128
133.23 0.0113994
133.24 0.0110185
133.25 0.0103763
133.26 0.00948598
133.27 0.00836783
133.28 0.00704847
133.29 0.00555471
133.3 0.00392853
133.31 0.00222073
133.32 0.000476473
133.33 -0.00125755
133.34 -0.00293447
133.35 -0.00450846
133.36 -0.00593612
133.37 -0.00717765
133.38 -0.00817715
133.39 -0.00891985
133.4 -0.0093875
133.41 -0.00956688
133.42 -0.00945274
133.43 -0.00904793
133.44 -0.00836339
133.45 -0.00741787
133.46 -0.00623174
133.47 -0.00483428
133.48 -0.00328011
133.49 -0.00161271
133.5 0.000121512
133.51 0.00187464
133.52 0.00359858
133.53 0.00524653
133.54 0.00677428
133.55 0.00812824
133.56 0.00927692
133.57 0.0101972
133.58 0.0108686
133.59 0.0112782
133.6 0.0114209
133.61 0.0112998
133.62 0.0109255
133.63 0.0103131
133.64 0.00947583
133.65 0.00846416
133.66 0.00731403
133.67 0.00606456
133.68 0.00475683
133.69 0.0034325
133.7 0.00213252
133.71 0.00089585
133.72 -0.000234909
133.73 -0.00122607
133.74 -0.00205712
133.75 -0.00270927
133.76 -0.00317024
133.77 -0.00343452
133.78 -0.00350337
133.79 -0.00338455
133.8 -0.00309191
133.81 -0.00263279
133.82 -0.00204735
133.83 -0.00136423
133.84 -0.000613872
133.85 0.000172151
133.86 0.00096231
133.87 0.00172624
133.88 0.00243582
133.89 0.0030624
133.9 0.00358095
133.91 0.00398122
133.92 0.00425337
133.93 0.00439301
133.94 0.00440114
133.95 0.00428402
133.96 0.00405266
133.97 0.00372235
133.98 0.00330738
133.99 0.00283614
134 0.00233332
134.01 0.00182261
134.02 0.00132707
134.03 0.000868201
134.04 0.000465065
134.05 0.000133479
134.06 -0.000112678
134.07 -0.000260688
134.08 -0.000314949
134.09 -0.000278302
134.1 -0.000158128
134.11 3.40095e-05
134.12 0.000282887
134.13 0.000570313
134.14 0.000875932
134.15 0.00117657
134.16 0.00144802
134.17 0.00166968
134.18 0.00182269
134.19 0.00189103
134.2 0.00186228
134.21 0.00172828
134.22 0.0014856
134.23 0.00113527
134.24 0.000676718
134.25 0.000132219
134.26 -0.000480937
134.27 -0.00114155
134.28 -0.00182527
134.29 -0.00250551
134.3 -0.00315443
134.31 -0.00374409
134.32 -0.00424251
134.33 -0.00462161
134.34 -0.00486518
134.35 -0.00495701
134.36 -0.00488614
134.37 -0.00464743
134.38 -0.00424199
134.39 -0.00367739
134.4 -0.00296755
134.41 -0.00212412
134.42 -0.001185
134.43 -0.000182713
134.44 0.000847962
134.45 0.00186992
134.46 0.00284501
134.47 0.00373542
134.48 0.00450503
134.49 0.00511544
134.5 0.0055288
134.51 0.00573384
134.52 0.00571577
134.53 0.0054673
134.54 0.00498911
134.55 0.00429007
134.56 0.00338712
134.57 0.00230496
134.58 0.00106789
134.59 -0.000275086
134.6 -0.00167639
134.61 -0.00308894
134.62 -0.00446392
134.63 -0.00575247
134.64 -0.00690734
134.65 -0.00788449
134.66 -0.00864126
134.67 -0.00912526
134.68 -0.009331
134.69 -0.0092437
134.7 -0.00885795
134.71 -0.00817808
134.72 -0.00721812
134.73 -0.00600158
134.74 -0.00456073
134.75 -0.00292851
134.76 -0.00116035
134.77 0.00068347
134.78 0.00254702
134.79 0.00437316
134.8 0.00610541
134.81 0.0076898
134.82 0.00907669
134.83 0.0102224
134.84 0.0110627
134.85 0.0115946
134.86 0.0118035
134.87 0.0116847
134.88 0.0112438
134.89 0.0104974
134.9 0.00947171
134.91 0.00820207
134.92 0.00672628
134.93 0.0050979
134.94 0.00338343
134.95 0.00164069
134.96 -7.20504e-05
134.97 -0.00169804
134.98 -0.00318403
134.99 -0.00448205
135 -0.0055511
135.01 -0.00633658
135.02 -0.00683032
135.03 -0.00702668
135.04 -0.00692616
135.05 -0.00654004
135.06 -0.00588991
135.07 -0.00500695
135.08 -0.00393078
135.09 -0.0027061
135.1 -0.00138633
135.11 -3.76743e-05
135.12 0.0012828
135.13 0.00251909
135.14 0.00361831
135.15 0.00453255
135.16 0.00522069
135.17 0.00564986
135.18 0.00577853
135.19 0.00560191
135.2 0.00513009
135.21 0.00437482
135.22 0.00335857
135.23 0.00211381
135.24 0.000681904
135.25 -0.00088827
135.26 -0.00254213
135.27 -0.00421708
135.28 -0.00584599
135.29 -0.00736911
135.3 -0.00872969
135.31 -0.00987599
135.32 -0.0107631
135.33 -0.0113548
135.34 -0.0116246
135.35 -0.0115412
135.36 -0.0111009
135.37 -0.010331
135.38 -0.00925368
135.39 -0.00790221
135.4 -0.00631964
135.41 -0.00455753
135.42 -0.00267417
135.43 -0.000732702
135.44 0.00119463
135.45 0.00303653
135.46 0.00472949
135.47 0.00621442
135.48 0.00743893
135.49 0.00835906
135.5 0.00894088
135.51 0.00916173
135.52 0.00899987
135.53 0.00844648
135.54 0.00754304
135.55 0.0063191
135.56 0.00481526
135.57 0.00308194
135.58 0.0011777
135.59 -0.000832642
135.6 -0.00288011
135.61 -0.00488649
135.62 -0.00677599
135.63 -0.0084832
135.64 -0.00994732
135.65 -0.0111152
135.66 -0.0119431
135.67 -0.0123982
135.68 -0.0124596
135.69 -0.0121134
135.7 -0.0113406
135.71 -0.0101939
135.72 -0.00870621
135.73 -0.00692142
135.74 -0.00489299
135.75 -0.00268229
135.76 -0.000356605
135.77 0.00201303
135.78 0.00434853
135.79 0.00657033
135.8 0.00861256
135.81 0.0104137
135.82 0.01192
135.83 0.0130871
135.84 0.0138815
135.85 0.0142812
135.86 0.0142767
135.87 0.0138348
135.88 0.0130111
135.89 0.0118355
135.9 0.0103478
135.91 0.00859674
135.92 0.00663843
135.93 0.00453434
135.94 0.00234936
135.95 0.000151739
135.96 -0.00198464
135.97 -0.00399801
135.98 -0.00583222
135.99 -0.00743806
136 -0.00877465
136.01 -0.00981053
136.02 -0.0105245
136.03 -0.0109058
136.04 -0.0109295
136.05 -0.0106289
136.06 -0.0100319
136.07 -0.00916936
136.08 -0.00807919
136.09 -0.0068052
136.1 -0.00539524
136.11 -0.00389956
136.12 -0.00236949
136.13 -0.00086072
136.14 0.000578661
136.15 0.00190713
136.16 0.00308899
136.17 0.00409535
136.18 0.00490489
136.19 0.00550421
136.2 0.00588802
136.21 0.00604633
136.22 0.00599789
136.23 0.00576788
136.24 0.00538025
136.25 0.00486337
136.26 0.00424875
136.27 0.00356971
136.28 0.00286002
136.29 0.0021528
136.3 0.00148414
136.31 0.000879828
136.32 0.000361849
136.33 -5.30161e-05
136.34 -0.000353661
136.35 -0.000534888
136.36 -0.000597408
136.37 -0.000547604
136.38 -0.000393137
136.39 -0.000152671
136.4 0.000148517
136.41 0.000487412
136.42 0.000839612
136.43 0.00118043
136.44 0.00148599
136.45 0.00173427
136.46 0.00190603
136.47 0.0019767
136.48 0.00194193
136.49 0.00179704
136.5 0.00154159
136.51 0.00118018
136.52 0.000722138
136.53 0.0001812
136.54 -0.000425154
136.55 -0.00107707
136.56 -0.00174981
136.57 -0.00241679
136.58 -0.00305415
136.59 -0.00363915
136.6 -0.00415106
136.61 -0.00457207
136.62 -0.00488798
136.63 -0.00508884
136.64 -0.00516076
136.65 -0.00510964
136.66 -0.00494388
136.67 -0.00467365
136.68 -0.00431325
136.69 -0.00388058
136.7 -0.00339636
136.71 -0.00288327
136.72 -0.00236531
136.73 -0.00186976
136.74 -0.00141904
136.75 -0.00103323
136.76 -0.000729369
136.77 -0.000520683
136.78 -0.000416009
136.79 -0.000419396
136.8 -0.000529881
136.81 -0.000746447
136.82 -0.00105477
136.83 -0.00143475
136.84 -0.0018666
136.85 -0.00232771
136.86 -0.00279356
136.87 -0.00323874
136.88 -0.00363799
136.89 -0.00396733
136.9 -0.00419469
136.91 -0.0043096
136.92 -0.00429893
136.93 -0.00415463
136.94 -0.00387411
136.95 -0.00346057
136.96 -0.00292302
136.97 -0.00227611
136.98 -0.00153723
136.99 -0.000733417
137 0.000101515
137.01 0.000935971
137.02 0.00173696
137.03 0.00247132
137.04 0.00310694
137.05 0.00361405
137.06 0.00396635
137.07 0.00412686
137.08 0.00409008
137.09 0.00385046
137.1 0.00340662
137.11 0.00276432
137.12 0.00193649
137.13 0.000942914
137.14 -0.000190277
137.15 -0.001433
137.16 -0.00274775
137.17 -0.00408683
137.18 -0.00540798
137.19 -0.00666855
137.2 -0.00782693
137.21 -0.00884398
137.22 -0.00968437
137.23 -0.0103178
137.24 -0.0107046
137.25 -0.0108342
137.26 -0.0107066
137.27 -0.0103226
137.28 -0.00969113
137.29 -0.00882927
137.3 -0.0077615
137.31 -0.0065191
137.32 -0.00513829
137.33 -0.00365775
137.34 -0.00213414
137.35 -0.000614187
137.36 0.000855553
137.37 0.00223022
137.38 0.0034681
137.39 0.00453198
137.4 0.00539036
137.41 0.00600658
137.42 0.0063625
137.43 0.00646171
137.44 0.0063052
137.45 0.00590215
137.46 0.00526951
137.47 0.00443136
137.48 0.00341804
137.49 0.00226505
137.5 0.00100671
137.51 -0.000303232
137.52 -0.00162113
137.53 -0.00290486
137.54 -0.00411447
137.55 -0.00521358
137.56 -0.00617049
137.57 -0.00695923
137.58 -0.00755378
137.59 -0.0079351
137.6 -0.00811155
137.61 -0.00808694
137.62 -0.00787199
137.63 -0.00748375
137.64 -0.00694483
137.65 -0.00628238
137.66 -0.00552698
137.67 -0.00470955
137.68 -0.00387001
137.69 -0.00304243
137.7 -0.00225749
137.71 -0.00154264
137.72 -0.000921038
137.73 -0.000410779
137.74 -2.42202e-05
137.75 0.000230219
137.76 0.000345277
137.77 0.000338683
137.78 0.000223634
137.79 1.83142e-05
137.8 -0.000254964
137.81 -0.000570771
137.82 -0.000901707
137.83 -0.00121963
137.84 -0.0014931
137.85 -0.00169431
137.86 -0.00180293
137.87 -0.00180121
137.88 -0.00167658
137.89 -0.00142222
137.9 -0.00103759
137.91 -0.000528521
137.92 9.28812e-05
137.93 0.000814817
137.94 0.0016022
137.95 0.00242582
137.96 0.00325317
137.97 0.00404964
137.98 0.00477982
137.99 0.0054089
138 0.00590404
138.01 0.00622801
138.02 0.006351
138.03 0.00626431
138.04 0.00595704
138.05 0.00542577
138.06 0.00467489
138.07 0.00371671
138.08 0.00257125
138.09 0.00126581
138.1 -0.000172719
138.11 -0.00169237
138.12 -0.003247
138.13 -0.00478974
138.14 -0.00627277
138.15 -0.00764892
138.16 -0.00887327
138.17 -0.00990474
138.18 -0.010701
138.19 -0.011219
138.2 -0.0114554
138.21 -0.0113995
138.22 -0.0110495
138.23 -0.0104133
138.24 -0.00950793
138.25 -0.00835923
138.26 -0.00700112
138.27 -0.0054668
138.28 -0.00381461
138.29 -0.00210119
138.3 -0.000380425
138.31 0.00129336
138.32 0.00286721
138.33 0.00429129
138.34 0.00552054
138.35 0.00651363
138.36 0.00721705
138.37 0.00763084
138.38 0.00774424
138.39 0.00755643
138.4 0.00707663
138.41 0.00632375
138.42 0.00532581
138.43 0.00411901
138.44 0.00274097
138.45 0.00124781
138.46 -0.000299834
138.47 -0.00184689
138.48 -0.00333844
138.49 -0.00472153
138.5 -0.00594693
138.51 -0.0069708
138.52 -0.00775612
138.53 -0.00824857
138.54 -0.00845024
138.55 -0.00835507
138.56 -0.00796547
138.57 -0.00729389
138.58 -0.00636238
138.59 -0.0052019
138.6 -0.00385131
138.61 -0.00235301
138.62 -0.000761355
138.63 0.000860687
138.64 0.00245743
138.65 0.00397383
138.66 0.00535728
138.67 0.00655929
138.68 0.00753709
138.69 0.00825498
138.7 0.00866318
138.71 0.00875758
138.72 0.00853807
138.73 0.00800816
138.74 0.00718107
138.75 0.00607928
138.76 0.00473376
138.77 0.00318294
138.78 0.00146951
138.79 -0.000358146
138.8 -0.00223532
138.81 -0.00410811
138.82 -0.00592335
138.83 -0.00763025
138.84 -0.00918199
138.85 -0.0105371
138.86 -0.0116606
138.87 -0.0125094
138.88 -0.0130686
138.89 -0.0133399
138.9 -0.0133243
138.91 -0.0130314
138.92 -0.0124791
138.93 -0.0116931
138.94 -0.0107052
138.95 -0.00955286
138.96 -0.00827089
138.97 -0.0069186
138.98 -0.00554161
138.99 -0.00418486
139 -0.00289124
139.01 -0.00170027
139.02 -0.000646904
139.03 0.000239467
139.04 0.000927205
139.05 0.00139682
139.06 0.00165148
139.07 0.00169147
139.08 0.00152422
139.09 0.00116382
139.1 0.000630415
139.11 -5.06714e-05
139.12 -0.000849864
139.13 -0.00173851
139.14 -0.00267277
139.15 -0.00361607
139.16 -0.00453362
139.17 -0.00539242
139.18 -0.00616227
139.19 -0.00681664
139.2 -0.00733343
139.21 -0.00769116
139.22 -0.00787031
139.23 -0.0078768
139.24 -0.00771126
139.25 -0.00737967
139.26 -0.0068929
139.27 -0.00626617
139.28 -0.00551845
139.29 -0.00467164
139.3 -0.00374663
139.31 -0.00277434
139.32 -0.00178266
139.33 -0.000796743
139.34 0.000159568
139.35 0.00106444
139.36 0.00189861
139.37 0.0026458
139.38 0.00329192
139.39 0.00381888
139.4 0.00423021
139.41 0.00452428
139.42 0.0047027
139.43 0.00477
139.44 0.00473317
139.45 0.00460129
139.46 0.00438499
139.47 0.00409294
139.48 0.0037393
139.49 0.00333947
139.5 0.00290516
139.51 0.00244726
139.52 0.00197551
139.53 0.00149829
139.54 0.00102254
139.55 0.000553659
139.56 9.6771e-05
139.57 -0.000346485
139.58 -0.000775077
139.59 -0.00118884
139.6 -0.0015883
139.61 -0.00197435
139.62 -0.00234805
139.63 -0.00271031
139.64 -0.00306132
139.65 -0.00340075
139.66 -0.00372842
139.67 -0.00404273
139.68 -0.00434131
139.69 -0.00462106
139.7 -0.00487829
139.71 -0.00510885
139.72 -0.00530834
139.73 -0.00546942
139.74 -0.00558944
139.75 -0.00566563
139.76 -0.00569526
139.77 -0.0056766
139.78 -0.00560909
139.79 -0.0054935
139.8 -0.00533193
139.81 -0.00512719
139.82 -0.00488258
139.83 -0.00460753
139.84 -0.00430927
139.85 -0.00399567
139.86 -0.00367506
139.87 -0.00335581
139.88 -0.00304606
139.89 -0.00275337
139.9 -0.00248606
139.91 -0.00224947
139.92 -0.00204629
139.93 -0.00187844
139.94 -0.00174602
139.95 -0.00164733
139.96 -0.00157892
139.97 -0.00153574
139.98 -0.00151134
139.99 -0.00149832
140 -0.00148663
140.01 -0.00146756
140.02 -0.00143264
140.03 -0.00137402
140.04 -0.00128494
140.05 -0.00116018
140.06 -0.00099637
140.07 -0.000790674
140.08 -0.000544454
140.09 -0.000264204
140.1 4.31094e-05
140.11 0.000368061
140.12 0.000698985
140.13 0.0010223
140.14 0.00132291
140.15 0.00158476
140.16 0.00178547
140.17 0.00191124
140.18 0.00194773
140.19 0.00188157
140.2 0.00170177
140.21 0.00140022
140.22 0.00097224
140.23 0.000416994
140.24 -0.00026539
140.25 -0.00107072
140.26 -0.00197784
140.27 -0.00296981
140.28 -0.00402594
140.29 -0.00512223
140.3 -0.00623199
140.31 -0.00732653
140.32 -0.00837597
140.33 -0.0093431
140.34 -0.0101983
140.35 -0.0109163
140.36 -0.0114724
140.37 -0.0118453
140.38 -0.0120182
140.39 -0.0119792
140.4 -0.0117217
140.41 -0.0112428
140.42 -0.0105335
140.43 -0.00962474
140.44 -0.00853492
140.45 -0.00728764
140.46 -0.00591118
140.47 -0.00443775
140.48 -0.00290256
140.49 -0.00134287
140.5 0.000200317
140.51 0.00168435
140.52 0.0030736
140.53 0.00433421
140.54 0.00543591
140.55 0.00635286
140.56 0.0070644
140.57 0.00755566
140.58 0.00781792
140.59 0.0078284
140.6 0.00761254
140.61 0.00718311
140.62 0.00655764
140.63 0.00575877
140.64 0.00481356
140.65 0.00375253
140.66 0.00260872
140.67 0.00141625
140.68 0.000213793
140.69 -0.000962256
140.7 -0.0020801
140.71 -0.00311089
140.72 -0.00402958
140.73 -0.00481561
140.74 -0.0054534
140.75 -0.00593274
140.76 -0.00623681
140.77 -0.00637633
140.78 -0.00636183
140.79 -0.00620539
140.8 -0.00592327
140.81 -0.0055352
140.82 -0.00506356
140.83 -0.0045325
140.84 -0.0039668
140.85 -0.00339337
140.86 -0.00283788
140.87 -0.00232162
140.88 -0.00186303
140.89 -0.00147707
140.9 -0.00117479
140.91 -0.000963022
140.92 -0.000844205
140.93 -0.000821469
140.94 -0.000885362
140.95 -0.00102207
140.96 -0.00121787
140.97 -0.0014566
140.98 -0.00172042
140.99 -0.00199057
141 -0.00224827
141.01 -0.00247532
141.02 -0.0026499
141.03 -0.00276163
141.04 -0.00280023
141.05 -0.00275905
141.06 -0.00263538
141.07 -0.00243065
141.08 -0.00215042
141.09 -0.00180427
141.1 -0.00140389
141.11 -0.000967923
141.12 -0.000518505
141.13 -7.687e-05
141.14 0.000334904
141.15 0.000694761
141.16 0.000981559
141.17 0.00117594
141.18 0.00126114
141.19 0.00121278
141.2 0.00103012
141.21 0.000710799
141.22 0.000255932
141.23 -0.000328333
141.24 -0.00103088
141.25 -0.00183585
141.26 -0.00272305
141.27 -0.00366935
141.28 -0.00464559
141.29 -0.00561852
141.3 -0.00655754
141.31 -0.00743202
141.32 -0.00821233
141.33 -0.00887087
141.34 -0.00938297
141.35 -0.00972783
141.36 -0.00987604
141.37 -0.0098237
141.38 -0.00957185
141.39 -0.00912248
141.4 -0.00848359
141.41 -0.00766896
141.42 -0.00669785
141.43 -0.00559441
141.44 -0.0043861
141.45 -0.00310313
141.46 -0.0017881
141.47 -0.000476536
141.48 0.000796121
141.49 0.00199559
141.5 0.0030898
141.51 0.00404993
141.52 0.00485126
141.53 0.0054639
141.54 0.00587422
141.55 0.00608296
141.56 0.00608937
141.57 0.00589885
141.58 0.00552276
141.59 0.00497802
141.6 0.00428653
141.61 0.0034744
141.62 0.00256573
141.63 0.00160328
141.64 0.000620634
141.65 -0.000348942
141.66 -0.00127331
141.67 -0.00212248
141.68 -0.00286957
141.69 -0.00349165
141.7 -0.00396474
141.71 -0.00427148
141.72 -0.00441424
141.73 -0.00439271
141.74 -0.00421229
141.75 -0.00388388
141.76 -0.00342342
141.77 -0.00285133
141.78 -0.00219175
141.79 -0.00146938
141.8 -0.000719644
141.81 2.6415e-05
141.82 0.000739187
141.83 0.00139041
141.84 0.0019541
141.85 0.00240744
141.86 0.00273151
141.87 0.00290871
141.88 0.00292108
141.89 0.00277651
141.9 0.00247754
141.91 0.002032
141.92 0.00145272
141.93 0.000757083
141.94 -3.35625e-05
141.95 -0.000894614
141.96 -0.00179987
141.97 -0.00271625
141.98 -0.00361324
141.99 -0.00446229
142 -0.00523637
142.01 -0.00591086
142.02 -0.00646424
142.03 -0.00687886
142.04 -0.00714058
142.05 -0.00722698
142.06 -0.0071495
142.07 -0.00691088
142.08 -0.00651879
142.09 -0.00598557
142.1 -0.00532777
142.11 -0.00456561
142.12 -0.00372229
142.13 -0.00282205
142.14 -0.00189512
142.15 -0.000971524
142.16 -7.81579e-05
142.17 0.000759451
142.18 0.0015179
142.19 0.00217662
142.2 0.00271846
142.21 0.00313018
142.22 0.00339073
142.23 0.0035062
142.24 0.00347917
142.25 0.0033152
142.26 0.003024
142.27 0.00261908
142.28 0.00211727
142.29 0.0015381
142.3 0.000902253
142.31 0.000234174
142.32 -0.000439178
142.33 -0.00109467
142.34 -0.00171026
142.35 -0.00226571
142.36 -0.0027432
142.37 -0.00312781
142.38 -0.00340802
142.39 -0.00356804
142.4 -0.00360886
142.41 -0.00353442
142.42 -0.00334957
142.43 -0.00306287
142.44 -0.00268622
142.45 -0.00223452
142.46 -0.00172509
142.47 -0.00117696
142.48 -0.000611614
142.49 -5.30716e-05
142.5 0.000477736
142.51 0.000960755
142.52 0.00137742
142.53 0.00171123
142.54 0.00194822
142.55 0.00207737
142.56 0.00208463
142.57 0.00196708
142.58 0.00172983
142.59 0.00137676
142.6 0.000915244
142.61 0.000355883
142.62 -0.000287786
142.63 -0.000999707
142.64 -0.00176177
142.65 -0.00255526
142.66 -0.00335513
142.67 -0.0041404
142.68 -0.00489059
142.69 -0.00558617
142.7 -0.00620915
142.71 -0.00674356
142.72 -0.00717588
142.73 -0.00749091
142.74 -0.00767815
142.75 -0.00774067
142.76 -0.00767839
142.77 -0.00749463
142.78 -0.00719597
142.79 -0.00679205
142.8 -0.00629528
142.81 -0.00572048
142.82 -0.00508116
142.83 -0.00440113
142.84 -0.00370082
142.85 -0.00299984
142.86 -0.00231751
142.87 -0.00167233
142.88 -0.00108141
142.89 -0.000560047
142.9 -0.000123299
142.91 0.000212896
142.92 0.000447959
142.93 0.000578339
142.94 0.000603753
142.95 0.000527185
142.96 0.000354801
142.97 9.57664e-05
142.98 -0.000238018
142.99 -0.000634926
143 -0.00107492
143.01 -0.001538
143.02 -0.00200528
143.03 -0.00245759
143.04 -0.00287604
143.05 -0.00324258
143.06 -0.00354056
143.07 -0.00375463
143.08 -0.00386357
143.09 -0.00386602
143.1 -0.00375623
143.11 -0.00353182
143.12 -0.0031939
143.13 -0.00274709
143.14 -0.00219947
143.15 -0.00156235
143.16 -0.000847435
143.17 -7.39555e-05
143.18 0.000734959
143.19 0.00155824
143.2 0.00237388
143.21 0.00315956
143.22 0.00389328
143.23 0.00455396
143.24 0.00512212
143.25 0.0055698
143.26 0.00588986
143.27 0.00607265
143.28 0.00611107
143.29 0.00600186
143.3 0.00574578
143.31 0.0053476
143.32 0.00481604
143.33 0.00416047
143.34 0.0033954
143.35 0.00254812
143.36 0.0016406
143.37 0.000696608
143.38 -0.000258962
143.39 -0.00120079
143.4 -0.00210385
143.41 -0.00294409
143.42 -0.00369181
143.43 -0.00432913
143.44 -0.00484195
143.45 -0.00521752
143.46 -0.00544702
143.47 -0.00552582
143.48 -0.0054536
143.49 -0.00523441
143.5 -0.00487474
143.51 -0.00438025
143.52 -0.00377867
143.53 -0.00308977
143.54 -0.00233576
143.55 -0.00154065
143.56 -0.000729517
143.57 7.22265e-05
143.58 0.000839601
143.59 0.00154444
143.6 0.0021633
143.61 0.00268
143.62 0.0030792
143.63 0.00334926
143.64 0.0034826
143.65 0.00347595
143.66 0.00333039
143.67 0.00305133
143.68 0.00263803
143.69 0.00211699
143.7 0.00150589
143.71 0.000825008
143.72 9.67241e-05
143.73 -0.000655182
143.74 -0.00140626
143.75 -0.00213214
143.76 -0.00280652
143.77 -0.00340373
143.78 -0.00390755
143.79 -0.0043018
143.8 -0.00457372
143.81 -0.00471435
143.82 -0.00471878
143.83 -0.00458624
143.84 -0.0043201
143.85 -0.00391882
143.86 -0.00340286
143.87 -0.00278953
143.88 -0.00209681
143.89 -0.00134485
143.9 -0.000555347
143.91 0.000249145
143.92 0.00104589
143.93 0.00181145
143.94 0.00252012
143.95 0.00315552
143.96 0.0037013
143.97 0.00414401
143.98 0.00447338
143.99 0.0046826
144 0.00476839
144.01 0.00473101
144.02 0.00456716
144.03 0.00428853
144.04 0.00390939
144.05 0.00344257
144.06 0.00290277
144.07 0.00230612
144.08 0.00166961
144.09 0.0010105
144.1 0.000345944
144.11 -0.000305362
144.12 -0.000928397
144.13 -0.00151006
144.14 -0.00203922
144.15 -0.00250694
144.16 -0.0029066
144.17 -0.00323396
144.18 -0.00348707
144.19 -0.00366285
144.2 -0.00376396
144.21 -0.0037983
144.22 -0.00377155
144.23 -0.00369039
144.24 -0.00356214
144.25 -0.00339442
144.26 -0.00319482
144.27 -0.00297056
144.28 -0.00272724
144.29 -0.0024724
144.3 -0.00221082
144.31 -0.00194606
144.32 -0.00168064
144.33 -0.00141609
144.34 -0.00115312
144.35 -0.00089172
144.36 -0.000631438
144.37 -0.000371509
144.38 -0.000111238
144.39 0.000149666
144.4 0.000410926
144.41 0.000671507
144.42 0.000929462
144.43 0.00118184
144.44 0.00142463
144.45 0.00165137
144.46 0.00185609
144.47 0.00203237
144.48 0.00217295
144.49 0.00227049
144.5 0.00231783
144.51 0.00230837
144.52 0.0022365
144.53 0.00209683
144.54 0.00188228
144.55 0.00159808
144.56 0.00124644
144.57 0.000832076
144.58 0.000362234
144.59 -0.000153284
144.6 -0.000702257
144.61 -0.00127025
144.62 -0.00184008
144.63 -0.00239161
144.64 -0.00290591
144.65 -0.00336381
144.66 -0.00374654
144.67 -0.00403635
144.68 -0.00421718
144.69 -0.00427529
144.7 -0.00419987
144.71 -0.00396992
144.72 -0.00359569
144.73 -0.00307899
144.74 -0.00242607
144.75 -0.00164767
144.76 -0.000758893
144.77 0.000221044
144.78 0.00126923
144.79 0.00236006
144.8 0.00346145
144.81 0.00454075
144.82 0.0055668
144.83 0.00650878
144.84 0.00733713
144.85 0.00802446
144.86 0.00854649
144.87 0.00888284
144.88 0.00900104
144.89 0.00890323
144.9 0.00858922
144.91 0.00806167
144.92 0.00732933
144.93 0.00640692
144.94 0.00531482
144.95 0.00407858
144.96 0.0027264
144.97 0.00129235
144.98 -0.000178796
144.99 -0.00164855
145 -0.00307809
145.01 -0.00442937
145.02 -0.00566624
145.03 -0.00675551
145.04 -0.0076679
145.05 -0.00836502
145.06 -0.00883317
145.07 -0.00906748
145.08 -0.00906323
145.09 -0.00882236
145.1 -0.00835341
145.11 -0.00767121
145.12 -0.00679643
145.13 -0.00575382
145.14 -0.00456634
145.15 -0.00328227
145.16 -0.00193803
145.17 -0.000570978
145.18 0.000781682
145.19 0.00208402
145.2 0.00330243
145.21 0.00440665
145.22 0.00536285
145.23 0.00614792
145.24 0.00675424
145.25 0.0071733
145.26 0.0074026
145.27 0.00744554
145.28 0.00731115
145.29 0.00701365
145.3 0.00657184
145.31 0.00599996
145.32 0.00533579
145.33 0.00460805
145.34 0.00384528
145.35 0.00307572
145.36 0.0023264
145.37 0.00162216
145.38 0.000984898
145.39 0.00043607
145.4 -6.15203e-06
145.41 -0.000338883
145.42 -0.000558551
145.43 -0.000666344
145.44 -0.000668008
145.45 -0.000573483
145.46 -0.000396384
145.47 -0.000153368
145.48 0.000138486
145.49 0.000454296
145.5 0.000772048
145.51 0.00107127
145.52 0.00133284
145.53 0.00153975
145.54 0.00167781
145.55 0.0017362
145.56 0.00170639
145.57 0.00158006
145.58 0.00136628
145.59 0.00107139
145.6 0.000705542
145.61 0.000282314
145.62 -0.000181841
145.63 -0.000668253
145.64 -0.00115679
145.65 -0.0016244
145.66 -0.00204848
145.67 -0.00241065
145.68 -0.00269374
145.69 -0.00288336
145.7 -0.00296845
145.71 -0.00294184
145.72 -0.00280054
145.73 -0.0025459
145.74 -0.00217479
145.75 -0.00170893
145.76 -0.00116336
145.77 -0.000556532
145.78 9.03348e-05
145.79 0.000753961
145.8 0.00140983
145.81 0.00203306
145.82 0.00259602
145.83 0.00307208
145.84 0.0034445
145.85 0.00369651
145.86 0.00381519
145.87 0.00379204
145.88 0.0036233
145.89 0.00331015
145.9 0.00285881
145.91 0.00227148
145.92 0.0015742
145.93 0.000789463
145.94 -5.87918e-05
145.95 -0.00094404
145.96 -0.00183802
145.97 -0.00271165
145.98 -0.00353592
145.99 -0.00428025
146 -0.00491133
146.01 -0.00541234
146.02 -0.00576445
146.03 -0.00595315
146.04 -0.00596865
146.05 -0.00580619
146.06 -0.00546622
146.07 -0.00495433
146.08 -0.00427174
146.09 -0.00344141
146.1 -0.00248844
146.11 -0.00143641
146.12 -0.000311531
146.13 0.000858146
146.14 0.00204359
146.15 0.00321564
146.16 0.00434516
146.17 0.00539747
146.18 0.00635244
146.19 0.00718903
146.2 0.00788972
146.21 0.00844093
146.22 0.0088332
146.23 0.00906138
146.24 0.00912453
146.25 0.00901829
146.26 0.00875146
146.27 0.00834263
146.28 0.00780579
146.29 0.00715729
146.3 0.00641517
146.31 0.00559865
146.32 0.00472748
146.33 0.00382143
146.34 0.0029
146.35 0.00198405
146.36 0.00109024
146.37 0.000233392
146.38 -0.000573565
146.39 -0.00131969
146.4 -0.00199606
146.41 -0.00259569
146.42 -0.00311063
146.43 -0.00353471
146.44 -0.00387125
146.45 -0.00411961
146.46 -0.00428005
146.47 -0.00435347
146.48 -0.00434125
146.49 -0.00424504
146.5 -0.00406671
146.51 -0.00380258
146.52 -0.00345905
146.53 -0.00304025
146.54 -0.00254887
146.55 -0.00198814
146.56 -0.00136195
146.57 -0.000675135
146.58 6.63492e-05
146.59 0.00085588
146.6 0.00168585
146.61 0.00254189
146.62 0.00341148
146.63 0.00428046
146.64 0.00513313
146.65 0.00595245
146.66 0.00672036
146.67 0.00741816
146.68 0.00802078
146.69 0.00850936
146.7 0.00887006
146.71 0.00908735
146.72 0.00914805
146.73 0.00904195
146.74 0.00876233
146.75 0.0083065
146.76 0.00767583
146.77 0.00686253
146.78 0.00589508
146.79 0.00479063
146.8 0.00357096
146.81 0.00226204
146.82 0.000893566
146.83 -0.000501724
146.84 -0.00188886
146.85 -0.00322814
146.86 -0.00447752
146.87 -0.00560416
146.88 -0.00657473
146.89 -0.00735913
146.9 -0.00793146
146.91 -0.00827098
146.92 -0.00836284
146.93 -0.00819879
146.94 -0.00775727
146.95 -0.00706332
146.96 -0.00613546
146.97 -0.0049957
146.98 -0.00367258
146.99 -0.00220042
147 -0.000618451
147.01 0.00103025
147.02 0.00269924
147.03 0.00433511
147.04 0.00589028
147.05 0.00732004
147.06 0.00858295
147.07 0.00964214
147.08 0.0104665
147.09 0.0110317
147.1 0.0113208
147.11 0.0113067
147.12 0.0110007
147.13 0.0104214
147.14 0.00958752
147.15 0.00852532
147.16 0.00726803
147.17 0.00585478
147.18 0.00432942
147.19 0.00273902
147.2 0.00113652
147.21 -0.00042402
147.22 -0.00189497
147.23 -0.00323182
147.24 -0.00439456
147.25 -0.00534892
147.26 -0.00606744
147.27 -0.00653026
147.28 -0.00671233
147.29 -0.00661263
147.3 -0.00625067
147.31 -0.00564214
147.32 -0.0048103
147.33 -0.00378515
147.34 -0.00260242
147.35 -0.00130225
147.36 7.21311e-05
147.37 0.00147449
147.38 0.00285392
147.39 0.00416749
147.4 0.0053756
147.41 0.00644323
147.42 0.007341
147.43 0.00804607
147.44 0.00854284
147.45 0.00881597
147.46 0.0088605
147.47 0.00869876
147.48 0.00834701
147.49 0.00782786
147.5 0.00716928
147.51 0.0064035
147.52 0.00556571
147.53 0.0046927
147.54 0.00382429
147.55 0.00299933
147.56 0.00225004
147.57 0.00160459
147.58 0.00108604
147.59 0.000711406
147.6 0.000491161
147.61 0.000428836
147.62 0.000523613
147.63 0.000771701
147.64 0.0011434
147.65 0.0016153
147.66 0.00215955
147.67 0.00274507
147.68 0.00333875
147.69 0.0039069
147.7 0.00441655
147.71 0.00483009
147.72 0.00511948
147.73 0.00526665
147.74 0.00525599
147.75 0.00507843
147.76 0.00473197
147.77 0.00422183
147.78 0.00356042
147.79 0.00276669
147.8 0.00185958
147.81 0.000882762
147.82 -0.000127994
147.83 -0.00113431
147.84 -0.00209664
147.85 -0.00297578
147.86 -0.0037344
147.87 -0.00433844
147.88 -0.00474977
147.89 -0.00494092
147.9 -0.00490707
147.91 -0.00464155
147.92 -0.00414605
147.93 -0.00343077
147.94 -0.00251424
147.95 -0.00142288
147.96 -0.000190213
147.97 0.00114882
147.98 0.00253818
147.99 0.00392848
148 0.00527033
148.01 0.00651485
148.02 0.0076154
148.03 0.00852926
148.04 0.00921923
148.05 0.00964761
148.06 0.00977953
148.07 0.00962173
148.08 0.00917335
148.09 0.00844355
148.1 0.00745149
148.11 0.00622577
148.12 0.00480374
148.13 0.00323031
148.14 0.00155381
148.15 -0.000159699
148.16 -0.00184863
148.17 -0.00345367
148.18 -0.00491706
148.19 -0.00618457
148.2 -0.00720728
148.21 -0.00794329
148.22 -0.00835532
148.23 -0.00839355
148.24 -0.00807457
148.25 -0.00739913
148.26 -0.00637933
148.27 -0.0050383
148.28 -0.00340961
148.29 -0.00153626
148.3 0.000530571
148.31 0.00273665
148.32 0.00501013
148.33 0.00727954
148.34 0.00947871
148.35 0.0115432
148.36 0.0134124
148.37 0.0150312
148.38 0.0163518
148.39 0.0173352
148.4 0.0179175
148.41 0.0181121
148.42 0.0179162
148.43 0.0173368
148.44 0.0163917
148.45 0.0151091
148.46 0.0135267
148.47 0.0116899
148.48 0.00964574
148.49 0.00745474
148.5 0.00518848
148.51 0.00290748
148.52 0.000670781
148.53 -0.00146581
148.54 -0.00345143
148.55 -0.00524162
148.56 -0.00679958
148.57 -0.00807623
148.58 -0.00906645
148.59 -0.00976836
148.6 -0.0101843
148.61 -0.0103257
148.62 -0.0102121
148.63 -0.00987045
148.64 -0.00933373
148.65 -0.00863727
148.66 -0.00781979
148.67 -0.00693478
148.68 -0.0060237
148.69 -0.00512583
148.7 -0.0042768
148.71 -0.00350734
148.72 -0.00284221
148.73 -0.00229944
148.74 -0.00189778
148.75 -0.00163664
148.76 -0.00150528
148.77 -0.00149082
148.78 -0.00157414
148.79 -0.00173083
148.8 -0.00193237
148.81 -0.00214739
148.82 -0.00234285
148.83 -0.00247842
148.84 -0.00252567
148.85 -0.00245715
148.86 -0.00224992
148.87 -0.00188661
148.88 -0.00135628
148.89 -0.000654985
148.9 0.000213806
148.91 0.00124516
148.92 0.00241884
148.93 0.00370059
148.94 0.00505836
148.95 0.00645541
148.96 0.00785158
148.97 0.0092046
148.98 0.0104716
148.99 0.0116106
149 0.0125649
149.01 0.0133083
149.02 0.0138134
149.03 0.0140573
149.04 0.0140244
149.05 0.0137071
149.06 0.0131063
149.07 0.012231
149.08 0.011092
149.09 0.00970906
149.1 0.00813257
149.11 0.00640169
149.12 0.00456005
149.13 0.00265446
149.14 0.000733391
149.15 -0.00115443
149.16 -0.00296156
149.17 -0.00463197
149.18 -0.00612636
149.19 -0.00741415
149.2 -0.00846763
149.21 -0.00926623
149.22 -0.00979693
149.23 -0.0100545
149.24 -0.0100415
149.25 -0.00976499
149.26 -0.00922707
149.27 -0.00847343
149.28 -0.00753337
149.29 -0.00644003
149.3 -0.00522918
149.31 -0.00393797
149.32 -0.0026037
149.33 -0.0012626
149.34 4.82329e-05
149.35 0.00129491
149.36 0.00245309
149.37 0.00350194
149.38 0.00442592
149.39 0.00521494
149.4 0.00586437
149.41 0.00637483
149.42 0.00675177
149.43 0.00699482
149.44 0.00712966
149.45 0.00717314
149.46 0.00714329
149.47 0.00705876
149.48 0.00693796
149.49 0.00679819
149.5 0.00665486
149.51 0.00652158
149.52 0.00640938
149.53 0.00632322
149.54 0.00626511
149.55 0.00623353
149.56 0.00622362
149.57 0.00622758
149.58 0.00623514
149.59 0.00623421
149.6 0.00620889
149.61 0.00614558
149.62 0.0060318
149.63 0.00585607
149.64 0.00560895
149.65 0.00528369
149.66 0.00487672
149.67 0.00438797
149.68 0.00381962
149.69 0.00317648
149.7 0.00247601
149.71 0.00173317
149.72 0.000965533
149.73 0.000192744
149.74 -0.000564251
149.75 -0.001284
149.76 -0.00194538
149.77 -0.00252268
149.78 -0.00299832
149.79 -0.00336077
149.8 -0.00359937
149.81 -0.00370754
149.82 -0.00368319
149.83 -0.00352891
149.84 -0.0032519
149.85 -0.0028634
149.86 -0.00237304
149.87 -0.00181069
149.88 -0.00119911
149.89 -0.000562915
149.9 7.24046e-05
149.91 0.00068142
149.92 0.00123977
149.93 0.00172512
149.94 0.00211327
149.95 0.00238654
149.96 0.00253963
149.97 0.00256754
149.98 0.00247061
149.99 0.00225458
150 0.00193045
150.01 0.00151421
150.02 0.00102622
150.03 0.000488897
150.04 -6.46134e-05
150.05 -0.000604787
150.06 -0.00110211
150.07 -0.00152774
150.08 -0.00185458
150.09 -0.00205844
150.1 -0.00211896
150.11 -0.00201561
150.12 -0.00173149
150.13 -0.00127443
150.14 -0.000647987
150.15 0.000137944
150.16 0.00106735
150.17 0.00211851
150.18 0.00326468
150.19 0.00447489
150.2 0.00571446
150.21 0.00694189
150.22 0.00811941
150.23 0.00921068
150.24 0.0101814
150.25 0.0110004
150.26 0.0116409
150.27 0.0120813
150.28 0.012303
150.29 0.0122816
150.3 0.0120346
150.31 0.0115685
150.32 0.0108969
150.33 0.0100398
150.34 0.00902273
150.35 0.00787613
150.36 0.00663428
150.37 0.0053331
150.38 0.00401625
150.39 0.00272414
150.4 0.00149332
150.41 0.000357597
150.42 -0.000653146
150.43 -0.00151388
150.44 -0.00220523
150.45 -0.00271404
150.46 -0.00301633
150.47 -0.00313031
150.48 -0.00306457
150.49 -0.00283326
150.5 -0.00245589
150.51 -0.00195645
150.52 -0.00136247
150.53 -0.000703824
150.54 -1.15625e-05
150.55 0.000679721
150.56 0.00133908
150.57 0.00193996
150.58 0.00245947
150.59 0.00287927
150.6 0.00318617
150.61 0.00337258
150.62 0.00343669
150.63 0.00337415
150.64 0.00320303
150.65 0.0029409
150.66 0.00260725
150.67 0.00222466
150.68 0.00181776
150.69 0.00141206
150.7 0.00103279
150.71 0.000705263
150.72 0.000456224
150.73 0.000298246
150.74 0.000243102
150.75 0.000297213
150.76 0.000461222
150.77 0.000729825
150.78 0.00109184
150.79 0.00153054
150.8 0.00202592
150.81 0.00254714
150.82 0.0030628
150.83 0.00354158
150.84 0.00395174
150.85 0.00426254
150.86 0.00444554
150.87 0.0044759
150.88 0.00433253
150.89 0.00398517
150.9 0.00344374
150.91 0.00271009
150.92 0.00179383
150.93 0.000712293
150.94 -0.000509738
150.95 -0.00184066
150.96 -0.00324293
150.97 -0.00467331
150.98 -0.00607977
150.99 -0.00741322
151 -0.00862591
151.01 -0.00967194
151.02 -0.010509
151.03 -0.0110999
151.04 -0.0114142
151.05 -0.0114293
151.06 -0.0111047
151.07 -0.0104613
151.08 -0.00951086
151.09 -0.00827214
151.1 -0.00677378
151.11 -0.00505344
151.12 -0.00315677
151.13 -0.00113611
151.14 0.000951231
151.15 0.00303767
151.16 0.00505763
151.17 0.00695065
151.18 0.00865964
151.19 0.0101329
151.2 0.0113258
151.21 0.0122026
151.22 0.0127374
151.23 0.0128908
151.24 0.0126768
151.25 0.0121164
151.26 0.011233
151.27 0.0100611
151.28 0.00864518
151.29 0.00703808
151.3 0.00529961
151.31 0.00349445
151.32 0.00169705
151.33 -2.06423e-05
151.34 -0.00159372
151.35 -0.00296206
151.36 -0.00407242
151.37 -0.00488031
151.38 -0.00535164
151.39 -0.00546397
151.4 -0.00518777
151.41 -0.00453318
151.42 -0.00353456
151.43 -0.00222366
151.44 -0.000643736
151.45 0.0011518
151.46 0.00310111
151.47 0.0051359
151.48 0.00718369
151.49 0.00915764
151.5 0.0109845
151.51 0.0125952
151.52 0.0139269
151.53 0.0149251
151.54 0.0155457
151.55 0.0157563
151.56 0.0155376
151.57 0.0148679
151.58 0.0137508
151.59 0.0122367
151.6 0.0103645
151.61 0.00818486
151.62 0.0057589
151.63 0.00315605
151.64 0.000451939
151.65 -0.00227404
151.66 -0.00493044
151.67 -0.00743456
151.68 -0.00971362
151.69 -0.0117006
151.7 -0.0133377
151.71 -0.014578
151.72 -0.0153867
151.73 -0.015743
151.74 -0.0156295
151.75 -0.0150336
151.76 -0.0140127
151.77 -0.0126041
151.78 -0.0108568
151.79 -0.00882949
151.8 -0.00658895
151.81 -0.00420764
151.82 -0.00176133
151.83 0.000667836
151.84 0.00299738
151.85 0.00515851
151.86 0.00708869
151.87 0.00873424
151.88 0.0100519
151.89 0.0110103
151.9 0.0115903
151.91 0.0117835
151.92 0.0115683
151.93 0.011001
151.94 0.010115
151.95 0.00895412
151.96 0.00757013
151.97 0.00602127
151.98 0.00437001
151.99 0.00268078
152 0.00102198
152.01 -0.000537192
152.02 -0.00194277
152.03 -0.00314612
152.04 -0.00410715
152.05 -0.00479556
152.06 -0.00519173
152.07 -0.00528721
152.08 -0.0050848
152.09 -0.00457594
152.1 -0.00381025
152.11 -0.00282535
152.12 -0.00166387
152.13 -0.000374185
152.14 0.000991429
152.15 0.00237874
152.16 0.00373359
152.17 0.00499967
152.18 0.00611944
152.19 0.00705778
152.2 0.00778118
152.21 0.00826466
152.22 0.00849262
152.23 0.00845919
152.24 0.00816837
152.25 0.00763372
152.26 0.00686435
152.27 0.00590511
152.28 0.0047998
152.29 0.00359175
152.3 0.00232745
152.31 0.00105475
152.32 -0.000178927
152.33 -0.00132832
152.34 -0.00234952
152.35 -0.00319304
152.36 -0.00384168
152.37 -0.00427569
152.38 -0.00448384
152.39 -0.00446374
152.4 -0.00422181
152.41 -0.00377297
152.42 -0.00313993
152.43 -0.00234588
152.44 -0.00143327
152.45 -0.000448452
152.46 0.000565984
152.47 0.00156678
152.48 0.00251167
152.49 0.00336103
152.5 0.00407929
152.51 0.00463634
152.52 0.00498969
152.53 0.00514061
152.54 0.00508299
152.55 0.0048189
152.56 0.00435859
152.57 0.00372001
152.58 0.00292809
152.59 0.00201381
152.6 0.00101116
152.61 -3.63077e-05
152.62 -0.00108276
152.63 -0.00208693
152.64 -0.00300922
152.65 -0.00381313
152.66 -0.0044667
152.67 -0.00494364
152.68 -0.00522439
152.69 -0.00528009
152.7 -0.00512041
152.71 -0.00475437
152.72 -0.00419544
152.73 -0.00346437
152.74 -0.00258842
152.75 -0.00160029
152.76 -0.00053695
152.77 0.000561583
152.78 0.00164926
152.79 0.00268328
152.8 0.00362498
152.81 0.00443925
152.82 0.0050958
152.83 0.00557023
152.84 0.00584499
152.85 0.00590996
152.86 0.00574984
152.87 0.00537867
152.88 0.00481817
152.89 0.00409031
152.9 0.00322325
152.91 0.00225022
152.92 0.0012083
152.93 0.000137061
152.94 -0.000922477
152.95 -0.00192236
152.96 -0.00282673
152.97 -0.00360188
152.98 -0.00421907
152.99 -0.00465557
153 -0.00489545
153.01 -0.00493014
153.02 -0.00475874
153.03 -0.00437932
153.04 -0.0038089
153.05 -0.00307943
153.06 -0.00221929
153.07 -0.00126167
153.08 -0.000243246
153.09 0.000797092
153.1 0.00181972
153.11 0.00278572
153.12 0.00364721
153.13 0.00437614
153.14 0.00494587
153.15 0.00533492
153.16 0.00552853
153.17 0.00551906
153.18 0.00530629
153.19 0.00489738
153.2 0.00430147
153.21 0.00353746
153.22 0.0026443
153.23 0.00165408
153.24 0.000602119
153.25 -0.000474318
153.26 -0.0015374
153.27 -0.0025501
153.28 -0.00347748
153.29 -0.00427771
153.3 -0.00492737
153.31 -0.00540901
153.32 -0.00570869
153.33 -0.00581917
153.34 -0.00574007
153.35 -0.00547783
153.36 -0.00504533
153.37 -0.00445932
153.38 -0.00373881
153.39 -0.0029243
153.4 -0.00204743
153.41 -0.00114139
153.42 -0.000239616
153.43 0.000625423
153.44 0.00142343
153.45 0.00212736
153.46 0.00270688
153.47 0.00314484
153.48 0.00343512
153.49 0.00357296
153.5 0.00355972
153.51 0.00340265
153.52 0.00311452
153.53 0.00271302
153.54 0.00221995
153.55 0.00165672
153.56 0.00105907
153.57 0.00045521
153.58 -0.000127053
153.59 -0.000661465
153.6 -0.00112434
153.61 -0.00149547
153.62 -0.00175892
153.63 -0.00189859
153.64 -0.00190685
153.65 -0.00179111
153.66 -0.00155758
153.67 -0.00121746
153.68 -0.000786453
153.69 -0.000284012
153.7 0.000267464
153.71 0.000843613
153.72 0.00141707
153.73 0.00196056
153.74 0.00245072
153.75 0.00286664
153.76 0.00319075
153.77 0.00340962
153.78 0.00351448
153.79 0.00350163
153.8 0.00336989
153.81 0.00312227
153.82 0.00277951
153.83 0.00235848
153.84 0.00187957
153.85 0.00136582
153.86 0.000841942
153.87 0.000333214
153.88 -0.000135578
153.89 -0.000535866
153.9 -0.000847499
153.91 -0.00105659
153.92 -0.00115184
153.93 -0.00112717
153.94 -0.000982033
153.95 -0.000721618
153.96 -0.000356753
153.97 9.69978e-05
153.98 0.000621332
153.99 0.00118317
154 0.00175392
154.01 0.00230333
154.02 0.00280068
154.03 0.00321603
154.04 0.00352152
154.05 0.00369256
154.06 0.00370075
154.07 0.0035306
154.08 0.00318237
154.09 0.00265595
154.1 0.00195839
154.11 0.00110388
154.12 0.00011344
154.13 -0.000985583
154.14 -0.00216035
154.15 -0.00337333
154.16 -0.00457708
154.17 -0.00572887
154.18 -0.00678625
154.19 -0.00770844
154.2 -0.00845782
154.21 -0.00900141
154.22 -0.0093122
154.23 -0.00936158
154.24 -0.00912975
154.25 -0.0086315
154.26 -0.00787499
154.27 -0.00687747
154.28 -0.00566493
154.29 -0.00427141
154.3 -0.00273803
154.31 -0.00111179
154.32 0.000554944
154.33 0.00220033
154.34 0.00376866
154.35 0.00520644
154.36 0.00646344
154.37 0.00749443
154.38 0.00826084
154.39 0.00873213
154.4 0.00888135
154.41 0.00867764
154.42 0.00814773
154.43 0.00730454
154.44 0.00617153
154.45 0.0047821
154.46 0.00317859
154.47 0.00141101
154.48 -0.000464541
154.49 -0.00238665
154.5 -0.00428412
154.51 -0.00609269
154.52 -0.00775196
154.53 -0.00920591
154.54 -0.0104048
154.55 -0.0113068
154.56 -0.0118796
154.57 -0.0121007
154.58 -0.0119267
154.59 -0.0113947
154.6 -0.0105204
154.61 -0.0093312
154.62 -0.0078645
154.63 -0.00616716
154.64 -0.00429375
154.65 -0.0023048
154.66 -0.000265589
154.67 0.00174903
154.68 0.00367118
154.69 0.00543836
154.7 0.00699318
154.71 0.00828531
154.72 0.00927312
154.73 0.00992505
154.74 0.0102206
154.75 0.0101221
154.76 0.00965944
154.77 0.00885584
154.78 0.00774063
154.79 0.00635329
154.8 0.00474216
154.81 0.0029628
154.82 0.0010761
154.83 -0.000853056
154.84 -0.00275111
154.85 -0.00455206
154.86 -0.00619597
154.87 -0.00762863
154.88 -0.00880333
154.89 -0.00968234
154.9 -0.0102382
154.91 -0.0104544
154.92 -0.0103041
154.93 -0.00980869
154.94 -0.00899902
154.95 -0.00790606
154.96 -0.00657004
154.97 -0.00503898
154.98 -0.003367
154.99 -0.00161245
155 0.000163679
155.01 0.00189185
155.02 0.0035131
155.03 0.00497389
155.04 0.00622691
155.05 0.00723256
155.06 0.00796025
155.07 0.0083893
155.08 0.00850955
155.09 0.00830691
155.1 0.0077967
155.11 0.00701626
155.12 0.00599796
155.13 0.0047818
155.14 0.00341392
155.15 0.00194489
155.16 0.000427869
155.17 -0.00108329
155.18 -0.00252634
155.19 -0.00385325
155.2 -0.00502112
155.21 -0.00599342
155.22 -0.00674156
155.23 -0.00724576
155.24 -0.00749569
155.25 -0.00749069
155.26 -0.00723199
155.27 -0.00673466
155.28 -0.00604173
155.29 -0.00518827
155.3 -0.0042149
155.31 -0.00316616
155.32 -0.00208884
155.33 -0.00103016
155.34 -3.59952e-05
155.35 0.000840119
155.36 0.00156279
155.37 0.00210411
155.38 0.00244145
155.39 0.0025606
155.4 0.00245636
155.41 0.00213273
155.42 0.00160275
155.43 0.000885279
155.44 4.66998e-06
155.45 -0.000987683
155.46 -0.00204918
155.47 -0.00313378
155.48 -0.00419368
155.49 -0.0051811
155.5 -0.00605002
155.51 -0.00675793
155.52 -0.00725411
155.53 -0.00750928
155.54 -0.00750978
155.55 -0.00724334
155.56 -0.0067071
155.57 -0.00590782
155.58 -0.00486175
155.59 -0.0035942
155.6 -0.00213837
155.61 -0.000526451
155.62 0.00117698
155.63 0.00292015
155.64 0.00464907
155.65 0.00630933
155.66 0.00784797
155.67 0.00921517
155.68 0.010366
155.69 0.0112497
155.7 0.0118298
155.71 0.0121
155.72 0.0120499
155.73 0.0116793
155.74 0.010998
155.75 0.0100253
155.76 0.00878986
155.77 0.0073283
155.78 0.00567344
155.79 0.00389212
155.8 0.00204033
155.81 0.000173445
155.82 -0.00165322
155.83 -0.00338624
155.84 -0.00497572
155.85 -0.00637694
155.86 -0.00754487
155.87 -0.00843598
155.88 -0.00904642
155.89 -0.00936599
155.9 -0.00939405
155.91 -0.0091395
155.92 -0.00862033
155.93 -0.00786292
155.94 -0.00690107
155.95 -0.005767
155.96 -0.00451705
155.97 -0.00320433
155.98 -0.00187852
155.99 -0.000588809
156 0.000617796
156.01 0.00169798
156.02 0.00261352
156.03 0.0033301
156.04 0.00380545
156.05 0.00404194
156.06 0.0040337
156.07 0.00378358
156.08 0.00330292
156.09 0.00261107
156.1 0.00173467
156.11 0.000706631
156.12 -0.0004385
156.13 -0.00165255
156.14 -0.00288625
156.15 -0.00409473
156.16 -0.0052342
156.17 -0.00626343
156.18 -0.00714509
156.19 -0.00784698
156.2 -0.00834305
156.21 -0.00859297
156.22 -0.00860478
156.23 -0.00837782
156.24 -0.00791828
156.25 -0.00724002
156.26 -0.00636401
156.27 -0.00531765
156.28 -0.00413381
156.29 -0.00284772
156.3 -0.00150335
156.31 -0.000148756
156.32 0.00117354
156.33 0.00242229
156.34 0.00355875
156.35 0.00454789
156.36 0.00535942
156.37 0.00596871
156.38 0.00634022
156.39 0.00647438
156.4 0.00637303
156.41 0.0060406
156.42 0.00548842
156.43 0.00473418
156.44 0.00380139
156.45 0.00271852
156.46 0.00151655
156.47 0.00023043
156.48 -0.00109372
156.49 -0.00241784
156.5 -0.00370456
156.51 -0.00491833
156.52 -0.00602637
156.53 -0.0069996
156.54 -0.00781338
156.55 -0.00843677
156.56 -0.00885902
156.57 -0.00907976
156.58 -0.00909796
156.59 -0.00891838
156.6 -0.0085512
156.61 -0.00801159
156.62 -0.00731918
156.63 -0.006497
156.64 -0.00556522
156.65 -0.00456416
156.66 -0.00352384
156.67 -0.00247448
156.68 -0.00144572
156.69 -0.000465815
156.7 0.000439091
156.71 0.00124555
156.72 0.00192751
156.73 0.00246574
156.74 0.00285487
156.75 0.00308745
156.76 0.00316022
156.77 0.00307402
156.78 0.0028336
156.79 0.00244737
156.8 0.00192701
156.81 0.00127863
156.82 0.000529502
156.83 -0.000299747
156.84 -0.00118865
156.85 -0.00211601
156.86 -0.00306041
156.87 -0.00400066
156.88 -0.00491628
156.89 -0.00578614
156.9 -0.006588
156.91 -0.00730923
156.92 -0.00793609
156.93 -0.00845708
156.94 -0.008863
156.95 -0.00914702
156.96 -0.00930476
156.97 -0.00933418
156.98 -0.0092272
156.99 -0.008992
157 -0.00863721
157.01 -0.00816987
157.02 -0.00759875
157.03 -0.00693416
157.04 -0.00618779
157.05 -0.00537245
157.06 -0.00450141
157.07 -0.00358775
157.08 -0.00265081
157.09 -0.00170572
157.1 -0.000767532
157.11 0.000149028
157.12 0.00102978
157.13 0.00186131
157.14 0.00263124
157.15 0.00332413
157.16 0.00392982
157.17 0.00444376
157.18 0.00485999
157.19 0.00517443
157.2 0.00538499
157.21 0.00549163
157.22 0.0054963
157.23 0.00540295
157.24 0.00520972
157.25 0.00493314
157.26 0.00458303
157.27 0.00417017
157.28 0.00370632
157.29 0.00320396
157.3 0.00267593
157.31 0.00213512
157.32 0.00159451
157.33 0.00106758
157.34 0.000564851
157.35 9.55412e-05
157.36 -0.000332748
157.37 -0.000714259
157.38 -0.00104522
157.39 -0.00132395
157.4 -0.00155086
157.41 -0.00172504
157.42 -0.00185438
157.43 -0.00194636
157.44 -0.00200895
157.45 -0.00205123
157.46 -0.00208301
157.47 -0.00211452
157.48 -0.00215587
157.49 -0.00221736
157.5 -0.00231015
157.51 -0.00243988
157.52 -0.00261206
157.53 -0.00283026
157.54 -0.00309588
157.55 -0.00340801
157.56 -0.00376341
157.57 -0.00415649
157.58 -0.00458069
157.59 -0.00502412
157.6 -0.00547397
157.61 -0.0059172
157.62 -0.00633997
157.63 -0.0067281
157.64 -0.00706757
157.65 -0.00734506
157.66 -0.00754801
157.67 -0.00765789
157.68 -0.0076737
157.69 -0.00759015
157.7 -0.00740477
157.71 -0.00711812
157.72 -0.00673385
157.73 -0.0062587
157.74 -0.00570236
157.75 -0.00507491
157.76 -0.00439303
157.77 -0.00367731
157.78 -0.00294636
157.79 -0.00221958
157.8 -0.00151655
157.81 -0.000856439
157.82 -0.00025738
157.83 0.00026414
157.84 0.000685157
157.85 0.00100019
157.86 0.00120253
157.87 0.0012879
157.88 0.00125569
157.89 0.00110895
157.9 0.000854365
157.91 0.000502068
157.92 6.3399e-05
157.93 -0.000446087
157.94 -0.00100229
157.95 -0.00158505
157.96 -0.00217339
157.97 -0.00274615
157.98 -0.00328273
157.99 -0.00376372
158 -0.00417154
158.01 -0.00448419
158.02 -0.0046923
158.03 -0.00479022
158.04 -0.00477357
158.05 -0.0046418
158.06 -0.00439818
158.07 -0.0040497
158.08 -0.00360681
158.09 -0.00308228
158.1 -0.0024898
158.11 -0.00185454
158.12 -0.00119653
158.13 -0.000536466
158.14 0.000105028
158.15 0.000708071
158.16 0.00125419
158.17 0.00172691
158.18 0.00210714
158.19 0.00238399
158.2 0.00255443
158.21 0.00261533
158.22 0.00256716
158.23 0.002414
158.24 0.00216331
158.25 0.00182565
158.26 0.00141422
158.27 0.000940584
158.28 0.000428452
158.29 -0.000104044
158.3 -0.000638819
158.31 -0.00115835
158.32 -0.0016463
158.33 -0.00208812
158.34 -0.00247154
158.35 -0.00278427
158.36 -0.00301789
158.37 -0.00317395
158.38 -0.00325334
158.39 -0.00326023
158.4 -0.00320181
158.41 -0.00308803
158.42 -0.00293115
158.43 -0.00274523
158.44 -0.00254573
158.45 -0.00235084
158.46 -0.0021764
158.47 -0.0020371
158.48 -0.0019461
158.49 -0.00191441
158.5 -0.00195042
158.51 -0.00205948
158.52 -0.00224517
158.53 -0.00250926
158.54 -0.00284035
158.55 -0.00322913
158.56 -0.00366313
158.57 -0.0041271
158.58 -0.00460349
158.59 -0.00507306
158.6 -0.00551548
158.61 -0.00590594
158.62 -0.00622334
158.63 -0.00645072
158.64 -0.00657149
158.65 -0.00657177
158.66 -0.00644102
158.67 -0.00617245
158.68 -0.00576342
158.69 -0.00521491
158.7 -0.00452313
158.71 -0.00371196
158.72 -0.00279708
158.73 -0.0017979
158.74 -0.000737018
158.75 0.000360409
158.76 0.00146738
158.77 0.00255586
158.78 0.00359416
158.79 0.00455105
158.8 0.00540346
158.81 0.00612834
158.82 0.00670596
158.83 0.00712046
158.84 0.00736044
158.85 0.00741929
158.86 0.00729549
158.87 0.00697825
158.88 0.00649126
158.89 0.00585094
158.9 0.00507631
158.91 0.00419018
158.92 0.00321852
158.93 0.00218964
158.94 0.00113337
158.95 8.12407e-05
158.96 -0.000932024
158.97 -0.00187834
158.98 -0.00273141
158.99 -0.00346801
159 -0.00406868
159.01 -0.00451827
159.02 -0.00480641
159.03 -0.00492779
159.04 -0.00487118
159.05 -0.00465025
159.06 -0.00428054
159.07 -0.00377788
159.08 -0.00316223
159.09 -0.00245697
159.1 -0.00168822
159.11 -0.000884016
159.12 -7.3826e-05
159.13 0.000708569
159.14 0.0014348
159.15 0.00207844
159.16 0.0026157
159.17 0.00302609
159.18 0.00329308
159.19 0.00340454
159.2 0.00335315
159.21 0.0031279
159.22 0.0027346
159.23 0.00218888
159.24 0.00150426
159.25 0.000698491
159.26 -0.000206971
159.27 -0.00118758
159.28 -0.00221645
159.29 -0.00326512
159.3 -0.00430078
159.31 -0.00529305
159.32 -0.00621419
159.33 -0.00703844
159.34 -0.00774276
159.35 -0.00830744
159.36 -0.0087167
159.37 -0.00895913
159.38 -0.00902133
159.39 -0.0088985
159.4 -0.00860469
159.41 -0.00814883
159.42 -0.00754434
159.43 -0.00680876
159.44 -0.00596324
159.45 -0.00503196
159.46 -0.00404142
159.47 -0.00301965
159.48 -0.00200027
159.49 -0.00101262
159.5 -8.45921e-05
159.51 0.000757679
159.52 0.00149048
159.53 0.00209318
159.54 0.00254879
159.55 0.00284064
159.56 0.00295147
159.57 0.00289031
159.58 0.0026593
159.59 0.0022653
159.6 0.00171971
159.61 0.00103816
159.62 0.000240133
159.63 -0.000651599
159.64 -0.00161398
159.65 -0.00261417
159.66 -0.00362097
159.67 -0.004605
159.68 -0.00553728
159.69 -0.00639003
159.7 -0.0071374
159.71 -0.00775617
159.72 -0.00822525
159.73 -0.00851393
159.74 -0.0086247
159.75 -0.00855139
159.76 -0.00829274
159.77 -0.00785241
159.78 -0.007239
159.79 -0.00646581
159.8 -0.00555062
159.81 -0.00451087
159.82 -0.00337533
159.83 -0.00217843
159.84 -0.000950957
159.85 0.000275065
159.86 0.00146717
159.87 0.0025933
159.88 0.00362258
159.89 0.00452617
159.9 0.00526306
159.91 0.00582103
159.92 0.00618406
159.93 0.00633953
159.94 0.00627996
159.95 0.00600324
159.96 0.00551279
159.97 0.0048175
159.98 0.0039264
159.99 0.00285584
160 0.00164273
160.01 0.00031582
160.02 -0.00109298
160.03 -0.00254935
160.04 -0.00401741
160.05 -0.00546067
160.06 -0.00684288
160.07 -0.00811995
160.08 -0.00926041
160.09 -0.0102377
160.1 -0.0110267
160.11 -0.0116071
160.12 -0.0119638
160.13 -0.0120872
160.14 -0.0119737
160.15 -0.0116225
160.16 -0.0110287
160.17 -0.0102268
160.18 -0.00923751
160.19 -0.0080866
160.2 -0.00680391
160.21 -0.00542258
160.22 -0.00397823
160.23 -0.00250801
160.24 -0.0010523
160.25 0.000347623
160.26 0.00165728
160.27 0.00284427
160.28 0.00387976
160.29 0.00473927
160.3 0.00540329
160.31 0.00585784
160.32 0.00609479
160.33 0.00609182
160.34 0.00587478
160.35 0.00545509
160.36 0.00484954
160.37 0.00407988
160.38 0.00317218
160.39 0.00215607
160.4 0.00106381
160.41 -7.07754e-05
160.42 -0.00120884
160.43 -0.00231408
160.44 -0.00335379
160.45 -0.00429774
160.46 -0.00511898
160.47 -0.00579462
160.48 -0.00630641
160.49 -0.00664122
160.5 -0.00677676
160.51 -0.00672312
160.52 -0.00648809
160.53 -0.00608178
160.54 -0.0055192
160.55 -0.00481975
160.56 -0.00400656
160.57 -0.00310575
160.58 -0.0021449
160.59 -0.00115538
160.6 -0.000170825
160.61 0.000779862
160.62 0.00166948
160.63 0.0024733
160.64 0.00316976
160.65 0.00374108
160.66 0.00417368
160.67 0.00444893
160.68 0.00456727
160.69 0.00453484
160.7 0.00435756
160.71 0.00404549
160.72 0.00361241
160.73 0.00307524
160.74 0.00245341
160.75 0.00176782
160.76 0.0010397
160.77 0.000296694
160.78 -0.000439449
160.79 -0.00114837
160.8 -0.0018117
160.81 -0.00241365
160.82 -0.00294138
160.83 -0.00338533
160.84 -0.00373506
160.85 -0.00398811
160.86 -0.00415041
160.87 -0.00422673
160.88 -0.00422464
160.89 -0.00415404
160.9 -0.00402665
160.91 -0.0038554
160.92 -0.00365388
160.93 -0.00343532
160.94 -0.00321496
160.95 -0.00300434
160.96 -0.00281308
160.97 -0.00264866
160.98 -0.00251607
160.99 -0.00241768
161 -0.00235316
161.01 -0.00232035
161.02 -0.00231374
161.03 -0.00232342
161.04 -0.00233973
161.05 -0.0023519
161.06 -0.00234857
161.07 -0.00231839
161.08 -0.00225058
161.09 -0.00213559
161.1 -0.00196127
161.11 -0.00172447
161.12 -0.00142423
161.13 -0.00106132
161.14 -0.00063964
161.15 -0.000166315
161.16 0.000348446
161.17 0.000891564
161.18 0.00144735
161.19 0.00199585
161.2 0.00251692
161.21 0.00299062
161.22 0.00339711
161.23 0.00371738
161.24 0.00393406
161.25 0.00403205
161.26 0.00399927
161.27 0.00381918
161.28 0.00348963
161.29 0.00301705
161.3 0.00240704
161.31 0.0016698
161.32 0.000820003
161.33 -0.000123479
161.34 -0.00113808
161.35 -0.00219809
161.36 -0.00327422
161.37 -0.00433268
161.38 -0.00534312
161.39 -0.00627569
161.4 -0.00710198
161.41 -0.00779597
161.42 -0.00833491
161.43 -0.00870003
161.44 -0.00886944
161.45 -0.00883104
161.46 -0.00859335
161.47 -0.00816035
161.48 -0.00754179
161.49 -0.00675302
161.5 -0.00581456
161.51 -0.00475151
161.52 -0.00359292
161.53 -0.0023686
161.54 -0.00112024
161.55 0.000115896
161.56 0.00130473
161.57 0.00241249
161.58 0.00340777
161.59 0.00426245
161.6 0.0049526
161.61 0.00545432
161.62 0.00574415
161.63 0.00582888
161.64 0.00570836
161.65 0.00538854
161.66 0.00488126
161.67 0.00420386
161.68 0.00337858
161.69 0.00243192
161.7 0.00139003
161.71 0.00029204
161.72 -0.000825471
161.73 -0.00192853
161.74 -0.0029841
161.75 -0.00396108
161.76 -0.00483123
161.77 -0.00556997
161.78 -0.00615563
161.79 -0.00655904
161.8 -0.00678477
161.81 -0.00682963
161.82 -0.00669592
161.83 -0.00639121
161.84 -0.00592801
161.85 -0.00532321
161.86 -0.00459748
161.87 -0.00377111
161.88 -0.00287358
161.89 -0.00193653
161.9 -0.000987296
161.91 -5.24985e-05
161.92 0.000842856
161.93 0.0016761
161.94 0.00242758
161.95 0.00308116
161.96 0.00361429
161.97 0.0040279
161.98 0.00432004
161.99 0.00449217
162 0.00454968
162.01 0.00450153
162.02 0.00435973
162.03 0.00413877
162.04 0.00385355
162.05 0.00352229
162.06 0.00316658
162.07 0.00280375
162.08 0.00244997
162.09 0.0021197
162.1 0.00182512
162.11 0.00157579
162.12 0.00137833
162.13 0.00124028
162.14 0.00115889
162.15 0.00112961
162.16 0.00114644
162.17 0.00120104
162.18 0.00128314
162.19 0.00138109
162.2 0.00148245
162.21 0.00157413
162.22 0.00164131
162.23 0.00167381
162.24 0.0016622
162.25 0.00159909
162.26 0.00147948
162.27 0.001301
162.28 0.00106407
162.29 0.000771863
162.3 0.000427975
162.31 4.29626e-05
162.32 -0.000370388
162.33 -0.000799531
162.34 -0.00123082
162.35 -0.00165005
162.36 -0.00204305
162.37 -0.00239625
162.38 -0.00269717
162.39 -0.00292856
162.4 -0.00308751
162.41 -0.00316873
162.42 -0.00316978
162.43 -0.00309125
162.44 -0.00293678
162.45 -0.00271296
162.46 -0.00242909
162.47 -0.00209551
162.48 -0.00172737
162.49 -0.00134261
162.5 -0.000957377
162.51 -0.000587965
162.52 -0.000250133
162.53 4.14856e-05
162.54 0.000273979
162.55 0.000436681
162.56 0.00051497
162.57 0.000509147
162.58 0.000419505
162.59 0.000248643
162.6 2.52538e-06
162.61 -0.000309685
162.62 -0.000675927
162.63 -0.00108165
162.64 -0.00151042
162.65 -0.00194241
162.66 -0.00235751
162.67 -0.00273711
162.68 -0.0030635
162.69 -0.00332044
162.7 -0.00349387
162.71 -0.00357241
162.72 -0.00354787
162.73 -0.00340857
162.74 -0.00315788
162.75 -0.00280297
162.76 -0.00235157
162.77 -0.00181503
162.78 -0.00120795
162.79 -0.00054772
162.8 0.000146044
162.81 0.000852036
162.82 0.00154524
162.83 0.00220286
162.84 0.00280374
162.85 0.00332832
162.86 0.00375939
162.87 0.00408261
162.88 0.00428709
162.89 0.00436581
162.9 0.00430957
162.91 0.00412093
162.92 0.00381225
162.93 0.00339406
162.94 0.00288053
162.95 0.00228898
162.96 0.00163937
162.97 0.000953536
162.98 0.00025453
162.99 -0.000431256
163 -0.00107991
163.01 -0.00167013
163.02 -0.00218269
163.03 -0.00260118
163.04 -0.00291255
163.05 -0.00310755
163.06 -0.00318109
163.07 -0.00312837
163.08 -0.00295061
163.09 -0.00266392
163.1 -0.00228081
163.11 -0.00181714
163.12 -0.00129159
163.13 -0.000724997
163.14 -0.000139607
163.15 0.000441691
163.16 0.000992593
163.17 0.00149081
163.18 0.00191752
163.19 0.0022559
163.2 0.00249231
163.21 0.00261685
163.22 0.00262362
163.23 0.002511
163.24 0.0022797
163.25 0.00193142
163.26 0.00148687
163.27 0.000961382
163.28 0.000373274
163.29 -0.000256774
163.3 -0.000906434
163.31 -0.00155249
163.32 -0.00217161
163.33 -0.00273707
163.34 -0.00322652
163.35 -0.00362358
163.36 -0.0039129
163.37 -0.00408263
163.38 -0.00412485
163.39 -0.00403577
163.4 -0.00381591
163.41 -0.00346976
163.42 -0.00299696
163.43 -0.00242259
163.44 -0.00176349
163.45 -0.00103921
163.46 -0.000271362
163.47 0.000517051
163.48 0.0013024
163.49 0.00206116
163.5 0.00276769
163.51 0.00339779
163.52 0.00393596
163.53 0.00436687
163.54 0.00467858
163.55 0.00486281
163.56 0.00491517
163.57 0.00483525
163.58 0.00462654
163.59 0.00428729
163.6 0.00383796
163.61 0.00329454
163.62 0.00267384
163.63 0.00199454
163.64 0.00127658
163.65 0.000540519
163.66 -0.00019312
163.67 -0.000903322
163.68 -0.00156778
163.69 -0.00217176
163.7 -0.00270112
163.71 -0.00314436
163.72 -0.00349285
163.73 -0.00374099
163.74 -0.00388623
163.75 -0.00392905
163.76 -0.00386667
163.77 -0.00370972
163.78 -0.00346977
163.79 -0.00315743
163.8 -0.0027847
163.81 -0.00236456
163.82 -0.00191052
163.83 -0.00143617
163.84 -0.000954835
163.85 -0.000480606
163.86 -2.50754e-05
163.87 0.000401981
163.88 0.000792376
163.89 0.00113964
163.9 0.00143909
163.91 0.00168781
163.92 0.00188458
163.93 0.00202728
163.94 0.00211843
163.95 0.00216358
163.96 0.00216693
163.97 0.0021334
163.98 0.00206834
163.99 0.00197736
164 0.00186606
164.01 0.00173989
164.02 0.00160357
164.03 0.00146293
164.04 0.0013221
164.05 0.0011846
164.06 0.00105342
164.07 0.000931027
164.08 0.000819421
164.09 0.000720223
164.1 0.000635263
164.11 0.000566121
164.12 0.000512898
164.13 0.00047647
164.14 0.000457702
164.15 0.000457463
164.16 0.00047663
164.17 0.000516047
164.18 0.000576477
164.19 0.000660147
164.2 0.000766212
164.21 0.000894083
164.22 0.00104309
164.23 0.00121194
164.24 0.00139861
164.25 0.00160024
164.26 0.00181315
164.27 0.00203278
164.28 0.00225313
164.29 0.00246736
164.3 0.00266851
164.31 0.00284916
164.32 0.00300165
164.33 0.00311835
164.34 0.00319194
164.35 0.00321569
164.36 0.00318027
164.37 0.00308199
164.38 0.00292018
164.39 0.00269396
164.4 0.00240443
164.41 0.00205486
164.42 0.00165069
164.43 0.00119959
164.44 0.000711232
164.45 0.000196379
164.46 -0.000328027
164.47 -0.000847035
164.48 -0.00134489
164.49 -0.00180549
164.5 -0.00221296
164.51 -0.00255212
164.52 -0.00280912
164.53 -0.00296745
164.54 -0.00301567
164.55 -0.00295259
164.56 -0.00277537
164.57 -0.0024847
164.58 -0.00208501
164.59 -0.00158448
164.6 -0.000994961
164.61 -0.00033177
164.62 0.000389408
164.63 0.00114128
164.64 0.00189956
164.65 0.00263934
164.66 0.00333521
164.67 0.00396206
164.68 0.00449586
164.69 0.00491452
164.7 0.0051945
164.71 0.0053125
164.72 0.00526691
164.73 0.00505162
164.74 0.0046656
164.75 0.00411306
164.76 0.00340356
164.77 0.00255181
164.78 0.00157742
164.79 0.000499731
164.8 -0.000646122
164.81 -0.00182606
164.82 -0.00300675
164.83 -0.00415394
164.84 -0.00523347
164.85 -0.00621236
164.86 -0.00705979
164.87 -0.00774599
164.88 -0.00823255
164.89 -0.00851563
164.9 -0.00858357
164.91 -0.00843081
164.92 -0.00805821
164.93 -0.00747301
164.94 -0.00668875
164.95 -0.0057249
164.96 -0.00459996
164.97 -0.00334889
164.98 -0.00201227
164.99 -0.000626598
165 0.000770263
165.01 0.00214026
165.02 0.00344635
165.03 0.00465363
165.04 0.00573044
165.05 0.00663307
165.06 0.00735209
165.07 0.00787319
165.08 0.00818785
165.09 0.00829427
165.1 0.00819734
165.11 0.00790847
165.12 0.00744521
165.13 0.00682624
165.14 0.00608027
165.15 0.00524822
165.16 0.00436468
165.17 0.00346541
165.18 0.00258609
165.19 0.00176117
165.2 0.0010226
165.21 0.000398796
165.22 -7.45481e-05
165.23 -0.000385784
165.24 -0.000526713
165.25 -0.000492937
165.26 -0.000286755
165.27 8.29164e-05
165.28 0.000600844
165.29 0.00124599
165.3 0.00199363
165.31 0.00281366
165.32 0.0036649
165.33 0.00451173
165.34 0.00531817
165.35 0.00604908
165.36 0.00667146
165.37 0.00715557
165.38 0.00747601
165.39 0.00760088
165.4 0.0075199
165.41 0.00723369
165.42 0.00674331
165.43 0.00605677
165.44 0.00518883
165.45 0.00416058
165.46 0.00299875
165.47 0.00173459
165.48 0.000401465
165.49 -0.000953525
165.5 -0.00229092
165.51 -0.0035715
165.52 -0.0047576
165.53 -0.00581431
165.54 -0.00671068
165.55 -0.00742068
165.56 -0.0079144
165.57 -0.00817582
165.58 -0.0082104
165.59 -0.00802022
165.6 -0.00761438
165.61 -0.00700876
165.62 -0.00622541
165.63 -0.00529181
165.64 -0.00423996
165.65 -0.00310152
165.66 -0.00192364
165.67 -0.000745734
165.68 0.000394391
165.69 0.0014609
165.7 0.00242113
165.71 0.00324666
165.72 0.00391426
165.73 0.00440135
165.74 0.00468966
165.75 0.00478862
165.76 0.00470278
165.77 0.00444339
165.78 0.00402795
165.79 0.00347952
165.8 0.00282596
165.81 0.00209884
165.82 0.00133223
165.83 0.000567209
165.84 -0.000159662
165.85 -0.000814228
165.86 -0.00136498
165.87 -0.00178414
165.88 -0.00204867
165.89 -0.00214106
165.9 -0.00204754
165.91 -0.00175057
165.92 -0.00126886
165.93 -0.000612679
165.94 0.000201401
165.95 0.00115102
165.96 0.00220876
165.97 0.0033431
165.98 0.00451941
165.99 0.00569938
166 0.00684109
166.01 0.00790806
166.02 0.0088659
166.03 0.00968335
166.04 0.0103334
166.05 0.0107939
166.06 0.0110488
166.07 0.011088
166.08 0.0108883
166.09 0.0104739
166.1 0.00985651
166.11 0.00905358
166.12 0.00808783
166.13 0.00698673
166.14 0.00578149
166.15 0.00450612
166.16 0.0031964
166.17 0.00189283
166.18 0.000632336
166.19 -0.000551916
166.2 -0.00162976
166.21 -0.00257494
166.22 -0.00336585
166.23 -0.00398608
166.24 -0.00442486
166.25 -0.0046631
166.26 -0.00471341
166.27 -0.00458701
166.28 -0.00429682
166.29 -0.00386028
166.3 -0.00329869
166.31 -0.00263635
166.32 -0.00189965
166.33 -0.00111574
166.34 -0.000314263
166.35 0.000475104
166.36 0.00122772
166.37 0.00192166
166.38 0.00253835
166.39 0.00306312
166.4 0.00348557
166.41 0.00379978
166.42 0.00399791
166.43 0.00408682
166.44 0.00407829
166.45 0.00398392
166.46 0.00381826
166.47 0.0035982
166.48 0.00334213
166.49 0.00306924
166.5 0.00279879
166.51 0.00255249
166.52 0.00234614
166.53 0.00219367
166.54 0.00210609
166.55 0.00209111
166.56 0.00215288
166.57 0.00229179
166.58 0.00250459
166.59 0.00278699
166.6 0.00312753
166.61 0.00350945
166.62 0.00391716
166.63 0.00433351
166.64 0.00474054
166.65 0.00512016
166.66 0.00545485
166.67 0.00572837
166.68 0.00591898
166.69 0.00601984
166.7 0.00602355
166.71 0.0059253
166.72 0.00572382
166.73 0.00542148
166.74 0.00502418
166.75 0.00454118
166.76 0.00398305
166.77 0.00336455
166.78 0.00270764
166.79 0.00203093
166.8 0.00135367
166.81 0.00069504
166.82 7.34941e-05
166.83 -0.000493873
166.84 -0.00099193
166.85 -0.0014017
166.86 -0.00171644
166.87 -0.0019326
166.88 -0.00204794
166.89 -0.00206375
166.9 -0.00198472
166.91 -0.00181877
166.92 -0.00157672
166.93 -0.00127123
166.94 -0.000916128
166.95 -0.000533231
166.96 -0.000140058
166.97 0.000245902
166.98 0.000607823
166.99 0.000930151
167 0.00119916
167.01 0.00140342
167.02 0.00153001
167.03 0.00157382
167.04 0.00153622
167.05 0.00141871
167.06 0.001226
167.07 0.00096579
167.08 0.000648453
167.09 0.000286661
167.1 -0.000105083
167.11 -0.000510764
167.12 -0.000911236
167.13 -0.00128995
167.14 -0.00163101
167.15 -0.00191975
167.16 -0.00214322
167.17 -0.00229064
167.18 -0.0023538
167.19 -0.00232384
167.2 -0.00219677
167.21 -0.0019792
167.22 -0.00167563
167.23 -0.00129346
167.24 -0.000842682
167.25 -0.000335522
167.26 0.000213954
167.27 0.00079034
167.28 0.00137694
167.29 0.00195509
167.3 0.00250859
167.31 0.00302238
167.32 0.00348283
167.33 0.0038782
167.34 0.004199
167.35 0.00443825
167.36 0.00458978
167.37 0.00464793
167.38 0.00462101
167.39 0.00451379
167.4 0.00433351
167.41 0.00408963
167.42 0.00379348
167.43 0.00345783
167.44 0.00309646
167.45 0.00272391
167.46 0.00235646
167.47 0.00200821
167.48 0.00169197
167.49 0.00141915
167.5 0.00119948
167.51 0.00104065
167.52 0.000948174
167.53 0.000925655
167.54 0.000979423
167.55 0.00110115
167.56 0.00128643
167.57 0.0015288
167.58 0.00181999
167.59 0.0021502
167.6 0.00250845
167.61 0.00288292
167.62 0.00326093
167.63 0.00362851
167.64 0.00397359
167.65 0.00428487
167.66 0.00455209
167.67 0.00476623
167.68 0.00491971
167.69 0.00500661
167.7 0.00502273
167.71 0.00495935
167.72 0.00482168
167.73 0.00461192
167.74 0.00433325
167.75 0.00399031
167.76 0.00358913
167.77 0.00313686
167.78 0.00264161
167.79 0.00211152
167.8 0.00155633
167.81 0.000987938
167.82 0.000416287
167.83 -0.000148758
167.84 -0.000697541
167.85 -0.00122075
167.86 -0.00170955
167.87 -0.00215565
167.88 -0.0025474
167.89 -0.00287955
167.9 -0.00314739
167.91 -0.0033458
167.92 -0.00347052
167.93 -0.00351822
167.94 -0.00348653
167.95 -0.00337407
167.96 -0.00317934
167.97 -0.00289809
167.98 -0.00253895
167.99 -0.00210531
168 -0.00160174
168.01 -0.00103407
168.02 -0.000409392
168.03 0.000264001
168.04 0.0009766
168.05 0.00171867
168.06 0.00247661
168.07 0.00323658
168.08 0.00398518
168.09 0.00470855
168.1 0.00539262
168.11 0.0060234
168.12 0.00658726
168.13 0.00707126
168.14 0.00745394
168.15 0.00773273
168.16 0.00789933
168.17 0.00794743
168.18 0.00787308
168.19 0.00767488
168.2 0.00735414
168.21 0.00691504
168.22 0.0063607
168.23 0.00570079
168.24 0.00495464
168.25 0.00413787
168.26 0.00326824
168.27 0.00236526
168.28 0.0014498
168.29 0.000543531
168.3 -0.000331555
168.31 -0.00114795
168.32 -0.00188628
168.33 -0.00252846
168.34 -0.00305766
168.35 -0.00345967
168.36 -0.00372339
168.37 -0.00384123
168.38 -0.00380932
168.39 -0.00362447
168.4 -0.00328476
168.41 -0.00281005
168.42 -0.00221338
168.43 -0.00151137
168.44 -0.000723794
168.45 0.000126828
168.46 0.00101586
168.47 0.00191715
168.48 0.0028011
168.49 0.00363817
168.5 0.00440288
168.51 0.00507079
168.52 0.00561974
168.53 0.00603055
168.54 0.00628756
168.55 0.00637912
168.56 0.00629665
168.57 0.00602385
168.58 0.0055792
168.59 0.00497086
168.6 0.00421164
168.61 0.0033187
168.62 0.00231316
168.63 0.00121963
168.64 6.55392e-05
168.65 -0.00111943
168.66 -0.00230011
168.67 -0.00344352
168.68 -0.00451836
168.69 -0.00549448
168.7 -0.00634371
168.71 -0.00704049
168.72 -0.00756262
168.73 -0.00789175
168.74 -0.00799517
168.75 -0.00787984
168.76 -0.0075443
168.77 -0.0069905
168.78 -0.00622543
168.79 -0.00526097
168.8 -0.00411362
168.81 -0.00280409
168.82 -0.00135349
168.83 0.000210395
168.84 0.00184831
168.85 0.00352771
168.86 0.00521503
168.87 0.00687642
168.88 0.00847842
168.89 0.00998869
168.9 0.0113766
168.91 0.0126015
168.92 0.0136431
168.93 0.014484
168.94 0.0151071
168.95 0.0154995
168.96 0.0156527
168.97 0.0155625
168.98 0.0152296
168.99 0.0146553
169 0.0138361
169.01 0.0128049
169.02 0.01158
169.03 0.010183
169.04 0.0086384
169.05 0.00697347
169.06 0.00521739
169.07 0.00340094
169.08 0.0015562
169.09 -0.000280201
169.1 -0.00207521
169.11 -0.00379748
169.12 -0.00541698
169.13 -0.00690544
169.14 -0.00823688
169.15 -0.00938805
169.16 -0.0103388
169.17 -0.0110508
169.18 -0.0115314
169.19 -0.0117729
169.2 -0.0117718
169.21 -0.011529
169.22 -0.01105
169.23 -0.0103445
169.24 -0.00942647
169.25 -0.00830728
169.26 -0.00700926
169.27 -0.00556896
169.28 -0.00401521
169.29 -0.00237915
169.3 -0.000693621
169.31 0.00100744
169.32 0.00268973
169.33 0.00431927
169.34 0.00585385
169.35 0.00726524
169.36 0.0085269
169.37 0.00961423
169.38 0.0105066
169.39 0.0111877
169.4 0.0116464
169.41 0.0118765
169.42 0.0118719
169.43 0.0116283
169.44 0.0111733
169.45 0.0105236
169.46 0.00970084
169.47 0.00873079
169.48 0.00764301
169.49 0.00646998
169.5 0.00524635
169.51 0.00400942
169.52 0.00279974
169.53 0.00165279
169.54 0.000601737
169.55 -0.000323063
169.56 -0.001095
169.57 -0.00169196
169.58 -0.002097
169.59 -0.00229709
169.6 -0.00227106
169.61 -0.00203915
169.62 -0.00161029
169.63 -0.0009995
169.64 -0.000227522
169.65 0.000679758
169.66 0.00169201
169.67 0.00277529
169.68 0.00389282
169.69 0.00500144
169.7 0.00606135
169.71 0.00703516
169.72 0.00788766
169.73 0.00858688
169.74 0.00910512
169.75 0.00941983
169.76 0.00951432
169.77 0.00935792
169.78 0.00896664
169.79 0.00834746
169.8 0.00751263
169.81 0.00648108
169.82 0.00527785
169.83 0.00393345
169.84 0.00248296
169.85 0.000964289
169.86 -0.000577244
169.87 -0.00209538
169.88 -0.0035481
169.89 -0.00489499
169.9 -0.00609851
169.91 -0.0071251
169.92 -0.0079462
169.93 -0.00853913
169.94 -0.00886956
169.95 -0.00894068
169.96 -0.00875815
169.97 -0.00832944
169.98 -0.00766917
169.99 -0.00679863
170 -0.00574516
170.01 -0.00454129
170.02 -0.00322256
170.03 -0.00182866
170.04 -0.000409792
170.05 0.000992032
170.06 0.00233589
170.07 0.00358321
170.08 0.00469892
170.09 0.00565249
170.1 0.00641886
170.11 0.00696688
170.12 0.00728766
170.13 0.00738575
170.14 0.00726487
170.15 0.00693561
170.16 0.00641506
170.17 0.00572615
170.18 0.00489691
170.19 0.00395935
170.2 0.00294541
170.21 0.00190191
170.22 0.000866368
170.23 -0.000124586
170.24 -0.00103642
170.25 -0.00183778
170.26 -0.00250145
170.27 -0.0030052
170.28 -0.00332477
170.29 -0.0034467
170.3 -0.00337796
170.31 -0.00312225
170.32 -0.00268943
170.33 -0.00209503
170.34 -0.00135965
170.35 -0.000508259
170.36 0.000430807
170.37 0.00142873
170.38 0.00244662
170.39 0.00345154
170.4 0.00441244
170.41 0.00530046
170.42 0.00608979
170.43 0.00675855
170.44 0.00728937
170.45 0.00766597
170.46 0.00787424
170.47 0.00792451
170.48 0.00782185
170.49 0.00757632
170.5 0.00720251
170.51 0.00671886
170.52 0.00614692
170.53 0.00551049
170.54 0.00483385
170.55 0.00414655
170.56 0.00347429
170.57 0.0028399
170.58 0.00226368
170.59 0.00176268
170.6 0.00135016
170.61 0.00103512
170.62 0.000823094
170.63 0.000721309
170.64 0.000715578
170.65 0.000796364
170.66 0.000950532
170.67 0.00116195
170.68 0.00141222
170.69 0.00168144
170.7 0.00194909
170.71 0.0021928
170.72 0.00239122
170.73 0.00252873
170.74 0.00259138
170.75 0.00256864
170.76 0.00245379
170.77 0.00224427
170.78 0.00194179
170.79 0.00155236
170.8 0.00108042
170.81 0.00054777
170.82 -2.75291e-05
170.83 -0.000625518
170.84 -0.00122463
170.85 -0.0018025
170.86 -0.00233689
170.87 -0.00280648
170.88 -0.00318837
170.89 -0.00346127
170.9 -0.00361778
170.91 -0.00364923
170.92 -0.00355134
170.93 -0.00332448
170.94 -0.00297377
170.95 -0.0025089
170.96 -0.00194392
170.97 -0.00129239
170.98 -0.000582328
170.99 0.00016022
171 0.000909411
171.01 0.00163878
171.02 0.00232219
171.03 0.00293473
171.04 0.00345368
171.05 0.00385695
171.06 0.00411968
171.07 0.00424023
171.08 0.00421295
171.09 0.00403733
171.1 0.00371807
171.11 0.00326497
171.12 0.00269262
171.13 0.00201994
171.14 0.00126662
171.15 0.000463123
171.16 -0.000359807
171.17 -0.00117334
171.18 -0.00194879
171.19 -0.00265859
171.2 -0.00327726
171.21 -0.00378232
171.22 -0.0041547
171.23 -0.00436602
171.24 -0.00442067
171.25 -0.00431593
171.26 -0.00405451
171.27 -0.00364452
171.28 -0.00309918
171.29 -0.00243636
171.3 -0.00167801
171.31 -0.000847681
171.32 2.36994e-05
171.33 0.000903187
171.34 0.00176113
171.35 0.00256863
171.36 0.00329857
171.37 0.00392647
171.38 0.00443133
171.39 0.00479635
171.4 0.00499655
171.41 0.00503549
171.42 0.00491489
171.43 0.00463971
171.44 0.00422002
171.45 0.00367061
171.46 0.00301043
171.47 0.00226188
171.48 0.00144915
171.49 0.0006007
171.5 -0.000251685
171.51 -0.00108069
171.52 -0.00186033
171.53 -0.00256684
171.54 -0.00317948
171.55 -0.00368117
171.56 -0.00405907
171.57 -0.00429603
171.58 -0.00439383
171.59 -0.00435885
171.6 -0.00419832
171.61 -0.0039237
171.62 -0.00355029
171.63 -0.0030965
171.64 -0.00258319
171.65 -0.00203269
171.66 -0.00146952
171.67 -0.000919358
171.68 -0.000403856
171.69 5.73549e-05
171.7 0.000447358
171.71 0.000752533
171.72 0.000963014
171.73 0.00107299
171.74 0.00107589
171.75 0.000975719
171.76 0.0007845
171.77 0.000513252
171.78 0.000176024
171.79 -0.000210724
171.8 -0.000628829
171.81 -0.0010592
171.82 -0.00148261
171.83 -0.00187667
171.84 -0.00222534
171.85 -0.0025144
171.86 -0.00273241
171.87 -0.00287123
171.88 -0.00292644
171.89 -0.00289742
171.9 -0.00278738
171.91 -0.00260106
171.92 -0.0023487
171.93 -0.00204852
171.94 -0.0017165
171.95 -0.00137012
171.96 -0.00102757
171.97 -0.000706922
171.98 -0.000425374
171.99 -0.000198429
172 -4.49386e-05
172.01 2.81989e-05
172.02 1.68588e-05
172.03 -8.04856e-05
172.04 -0.000261161
172.05 -0.000518283
172.06 -0.000840922
172.07 -0.00121443
172.08 -0.00162113
172.09 -0.00203886
172.1 -0.00244273
172.11 -0.00280941
172.12 -0.00311575
172.13 -0.00333975
172.14 -0.00346146
172.15 -0.00346387
172.16 -0.0033337
172.17 -0.0030536
172.18 -0.00262305
172.19 -0.00204984
172.2 -0.00134209
172.21 -0.000513302
172.22 0.000417956
172.23 0.00142849
172.24 0.00249116
172.25 0.00357567
172.26 0.00464543
172.27 0.00566531
172.28 0.00660212
172.29 0.00742415
172.3 0.0081024
172.31 0.00861156
172.32 0.00893107
172.33 0.00904588
172.34 0.0089379
172.35 0.00860359
172.36 0.0080604
172.37 0.00732151
172.38 0.00640663
172.39 0.00534152
172.4 0.00415721
172.41 0.00288905
172.42 0.00157567
172.43 0.00026077
172.44 -0.00101034
172.45 -0.00219744
172.46 -0.0032627
172.47 -0.00417203
172.48 -0.00489617
172.49 -0.00541182
172.5 -0.00570243
172.51 -0.00575247
172.52 -0.00555191
172.53 -0.0051251
172.54 -0.00448827
172.55 -0.00366489
172.56 -0.00268499
172.57 -0.00158421
172.58 -0.000402641
172.59 0.000816469
172.6 0.00202453
172.61 0.00317189
172.62 0.00421555
172.63 0.00511533
172.64 0.00583558
172.65 0.00634647
172.66 0.00662497
172.67 0.00665575
172.68 0.00642882
172.69 0.00592862
172.7 0.00518851
172.71 0.00422884
172.72 0.00307757
172.73 0.0017694
172.74 0.00034467
172.75 -0.00115196
172.76 -0.00267291
172.77 -0.00416545
172.78 -0.00557525
172.79 -0.00685763
172.8 -0.00797042
172.81 -0.00887666
172.82 -0.00954588
172.83 -0.0099551
172.84 -0.0100896
172.85 -0.00994345
172.86 -0.00949567
172.87 -0.00878467
172.88 -0.00783396
172.89 -0.00667358
172.9 -0.00534019
172.91 -0.00387588
172.92 -0.00232676
172.93 -0.000741442
172.94 0.000828282
172.95 0.00232662
172.96 0.00370921
172.97 0.00493483
172.98 0.00596785
172.99 0.00677948
173 0.0073486
173.01 0.00766248
173.02 0.00771711
173.03 0.0074993
173.04 0.0070391
173.05 0.00636477
173.06 0.00550657
173.07 0.00450067
173.08 0.00338782
173.09 0.00221195
173.1 0.00101854
173.11 -0.000145439
173.12 -0.00122781
173.13 -0.00219152
173.14 -0.00300192
173.15 -0.00363053
173.16 -0.00405605
173.17 -0.00426509
173.18 -0.00425265
173.19 -0.00402225
173.2 -0.00357484
173.21 -0.00293862
173.22 -0.00214952
173.23 -0.0012422
173.24 -0.000256024
173.25 0.000766342
173.26 0.0017805
173.27 0.00274191
173.28 0.00360694
173.29 0.00432046
173.3 0.00485763
173.31 0.00519052
173.32 0.00529848
173.33 0.00516892
173.34 0.00479783
173.35 0.00419008
173.36 0.00335928
173.37 0.00232005
173.38 0.00110558
173.39 -0.000236123
173.4 -0.00166189
173.41 -0.00312478
173.42 -0.00457561
173.43 -0.00596467
173.44 -0.00724339
173.45 -0.00836601
173.46 -0.00927179
173.47 -0.00993737
173.48 -0.0103386
173.49 -0.0104575
173.5 -0.0102849
173.51 -0.00982155
173.52 -0.00907725
173.53 -0.00807132
173.54 -0.00682621
173.55 -0.00537505
173.56 -0.00377696
173.57 -0.00208078
173.58 -0.00033869
173.59 0.00139544
173.6 0.00306786
173.61 0.00462666
173.62 0.00602352
173.63 0.00719889
173.64 0.00812184
173.65 0.00877137
173.66 0.00912984
173.67 0.00918918
173.68 0.00895119
173.69 0.00842745
173.7 0.00763896
173.71 0.00661301
173.72 0.00537789
173.73 0.00399771
173.74 0.00252233
173.75 0.00100452
173.76 -0.000501792
173.77 -0.00194331
173.78 -0.00326918
173.79 -0.00443267
173.8 -0.00538038
173.81 -0.00607727
173.82 -0.00650868
173.83 -0.00666048
173.84 -0.00652831
173.85 -0.00611781
173.86 -0.00544445
173.87 -0.004533
173.88 -0.00341679
173.89 -0.0021259
173.9 -0.000726337
173.91 0.000729193
173.92 0.00218608
173.93 0.00358912
173.94 0.00488435
173.95 0.00602084
173.96 0.00695239
173.97 0.00762893
173.98 0.00800937
173.99 0.00808694
174 0.00785014
174.01 0.00729758
174.02 0.00643821
174.03 0.00529097
174.04 0.00388434
174.05 0.00225544
174.06 0.000439367
174.07 -0.00149721
174.08 -0.00349494
174.09 -0.00549531
174.1 -0.00743924
174.11 -0.00926896
174.12 -0.0109297
174.13 -0.0123715
174.14 -0.0135445
174.15 -0.0143938
174.16 -0.0149143
174.17 -0.0150907
174.18 -0.0149179
174.19 -0.0144011
174.2 -0.0135557
174.21 -0.0124067
174.22 -0.0109879
174.23 -0.00933004
174.24 -0.00749327
174.25 -0.00553911
174.26 -0.00352426
174.27 -0.00150659
174.28 0.000456658
174.29 0.00231054
174.3 0.00400403
174.31 0.00549023
174.32 0.00670663
174.33 0.00764321
174.34 0.00827971
174.35 0.00860514
174.36 0.00861798
174.37 0.00832607
174.38 0.0077462
174.39 0.00690343
174.4 0.00582178
174.41 0.00454463
174.42 0.00312791
174.43 0.00161941
174.44 6.85819e-05
174.45 -0.00147506
174.46 -0.00296341
174.47 -0.00435124
174.48 -0.00559748
174.49 -0.00664902
174.5 -0.00748814
174.51 -0.00809626
174.52 -0.00846063
174.53 -0.00857645
174.54 -0.00844677
174.55 -0.00808223
174.56 -0.00750057
174.57 -0.00672111
174.58 -0.00577138
174.59 -0.00469845
174.6 -0.00353991
174.61 -0.00233499
174.62 -0.00112322
174.63 5.67074e-05
174.64 0.00116821
174.65 0.00217787
174.66 0.00304568
174.67 0.00375116
174.68 0.00428045
174.69 0.00462228
174.7 0.00477165
174.71 0.00472982
174.72 0.00450405
174.73 0.00410722
174.74 0.00355552
174.75 0.00286509
174.76 0.00207453
174.77 0.00121263
174.78 0.000309531
174.79 -0.000604284
174.8 -0.00149893
174.81 -0.00234603
174.82 -0.00311959
174.83 -0.00379057
174.84 -0.00433911
174.85 -0.00475547
174.86 -0.00503035
174.87 -0.00515921
174.88 -0.00514223
174.89 -0.00498414
174.9 -0.00469391
174.91 -0.00428437
174.92 -0.00376388
174.93 -0.00316248
174.94 -0.00250161
174.95 -0.00180367
174.96 -0.00109148
174.97 -0.000387603
174.98 0.000286277
174.99 0.000909992
175 0.00146221
175.01 0.00192404
175.02 0.00228732
175.03 0.00254296
175.04 0.00268506
175.05 0.0027109
175.06 0.00262089
175.07 0.00241837
175.08 0.00210939
175.09 0.00169565
175.1 0.00119472
175.11 0.000620766
175.12 -1.26212e-05
175.13 -0.000691093
175.14 -0.00139994
175.15 -0.00212442
175.16 -0.00285014
175.17 -0.00356267
175.18 -0.00424641
175.19 -0.00489067
175.2 -0.00548487
175.21 -0.00601969
175.22 -0.00648706
175.23 -0.00688016
175.24 -0.00719346
175.25 -0.00742257
175.26 -0.00755877
175.27 -0.00760225
175.28 -0.00755499
175.29 -0.007417
175.3 -0.00718921
175.31 -0.00687347
175.32 -0.00647251
175.33 -0.00599001
175.34 -0.00543016
175.35 -0.00479346
175.36 -0.0040936
175.37 -0.00333869
175.38 -0.00253802
175.39 -0.00170201
175.4 -0.000842266
175.41 2.85285e-05
175.42 0.000896688
175.43 0.00174616
175.44 0.00255962
175.45 0.00332234
175.46 0.0040186
175.47 0.00463299
175.48 0.00515076
175.49 0.00555825
175.5 0.00584329
175.51 0.00599561
175.52 0.00599478
175.53 0.00584618
175.54 0.00554954
175.55 0.0051066
175.56 0.00452254
175.57 0.00380608
175.58 0.00296945
175.59 0.00202825
175.6 0.000999368
175.61 -9.50292e-05
175.62 -0.00122516
175.63 -0.0023649
175.64 -0.00348709
175.65 -0.00456418
175.66 -0.00556902
175.67 -0.00647557
175.68 -0.00725969
175.69 -0.00788854
175.7 -0.008349
175.71 -0.00863145
175.72 -0.0087272
175.73 -0.00863248
175.74 -0.00834869
175.75 -0.00788252
175.76 -0.00724587
175.77 -0.00645373
175.78 -0.00552173
175.79 -0.00448846
175.8 -0.00338376
175.81 -0.00223992
175.82 -0.00109086
175.83 2.89157e-05
175.84 0.00108523
175.85 0.00204528
175.86 0.00287027
175.87 0.00353204
175.88 0.00401402
175.89 0.00429944
175.9 0.00437718
175.91 0.00424222
175.92 0.0038958
175.93 0.00334552
175.94 0.0026052
175.95 0.00168097
175.96 0.000616463
175.97 -0.00055744
175.98 -0.00180642
175.99 -0.00309355
176 -0.00438037
176.01 -0.00562802
176.02 -0.00679841
176.03 -0.00784965
176.04 -0.00874244
176.05 -0.00945545
176.06 -0.00996588
176.07 -0.0102569
176.08 -0.010318
176.09 -0.0101455
176.1 -0.00974295
176.11 -0.00912042
176.12 -0.00828082
176.13 -0.0072627
176.14 -0.00609908
176.15 -0.00482399
176.16 -0.00347486
176.17 -0.00209137
176.18 -0.000714236
176.19 0.000616004
176.2 0.00185737
176.21 0.00296374
176.22 0.00390999
176.23 0.00466938
176.24 0.00522097
176.25 0.00555026
176.26 0.00564959
176.27 0.00551838
176.28 0.00516315
176.29 0.00458543
176.3 0.00381447
176.31 0.00288386
176.32 0.0018252
176.33 0.000673794
176.34 -0.00053243
176.35 -0.00175415
176.36 -0.00295189
176.37 -0.00408651
176.38 -0.00511081
176.39 -0.00599912
176.4 -0.00672453
176.41 -0.00726569
176.42 -0.00760747
176.43 -0.0077414
176.44 -0.00766595
176.45 -0.00738649
176.46 -0.00690711
176.47 -0.00624922
176.48 -0.00544728
176.49 -0.00453129
176.5 -0.00353488
176.51 -0.00249423
176.52 -0.0014468
176.53 -0.000430187
176.54 0.000519199
176.55 0.00135591
176.56 0.00205535
176.57 0.0025936
176.58 0.00295147
176.59 0.00311601
176.6 0.00308094
176.61 0.00284691
176.62 0.00242144
176.63 0.00181397
176.64 0.00104304
176.65 0.000147057
176.66 -0.000842087
176.67 -0.001889
176.68 -0.0029559
176.69 -0.00400383
176.7 -0.0049939
176.71 -0.0058886
176.72 -0.00664146
176.73 -0.00722482
176.74 -0.00761667
176.75 -0.00779765
176.76 -0.00775491
176.77 -0.00748252
176.78 -0.00698178
176.79 -0.00626119
176.8 -0.00533342
176.81 -0.00421195
176.82 -0.00294201
176.83 -0.00155772
176.84 -9.70789e-05
176.85 0.00139922
176.86 0.00288902
176.87 0.00432991
176.88 0.00568058
176.89 0.00689285
176.9 0.00792952
176.91 0.00876614
176.92 0.00937866
176.93 0.00974944
176.94 0.00986776
176.95 0.00973009
176.96 0.00934021
176.97 0.00870906
176.98 0.00783553
176.99 0.00676757
177 0.00553583
177.01 0.0041753
177.02 0.00272421
177.03 0.00122294
177.04 -0.000287214
177.05 -0.00176527
177.06 -0.00316738
177.07 -0.00445092
177.08 -0.00558804
177.09 -0.00655149
177.1 -0.00731959
177.11 -0.00787681
177.12 -0.00821409
177.13 -0.008329
177.14 -0.00822572
177.15 -0.00789971
177.16 -0.00738296
177.17 -0.00670157
177.18 -0.00588274
177.19 -0.00495706
177.2 -0.00395753
177.21 -0.0029185
177.22 -0.0018746
177.23 -0.000861208
177.24 8.35181e-05
177.25 0.000933474
177.26 0.00166394
177.27 0.00225463
177.28 0.00269023
177.29 0.00296073
177.3 0.00306157
177.31 0.00299367
177.32 0.00275368
177.33 0.00235987
177.34 0.00183386
177.35 0.00119585
177.36 0.00046895
177.37 -0.000321662
177.38 -0.0011496
177.39 -0.00198815
177.4 -0.00281079
177.41 -0.00358731
177.42 -0.00429735
177.43 -0.00492183
177.44 -0.00544515
177.45 -0.00585555
177.46 -0.0061454
177.47 -0.00631127
177.48 -0.00635388
177.49 -0.00627271
177.5 -0.00607776
177.51 -0.0057868
177.52 -0.00541461
177.53 -0.00497788
177.54 -0.0044945
177.55 -0.00398286
177.56 -0.00346121
177.57 -0.00294692
177.58 -0.00245912
177.59 -0.00201064
177.6 -0.00161201
177.61 -0.00127105
177.62 -0.000992493
177.63 -0.000777864
177.64 -0.000625579
177.65 -0.000531095
177.66 -0.0004885
177.67 -0.000488204
177.68 -0.000515492
177.69 -0.000557643
177.7 -0.000601444
177.71 -0.000633808
177.72 -0.00064239
177.73 -0.000616168
177.74 -0.000545985
177.75 -0.000421073
177.76 -0.000239827
177.77 -3.03859e-06
177.78 0.000286512
177.79 0.000622877
177.8 0.000997055
177.81 0.00139724
177.82 0.00180915
177.83 0.00221612
177.84 0.00259708
177.85 0.0029339
177.86 0.0032079
177.87 0.00340112
177.88 0.00349695
177.89 0.00348084
177.9 0.00334089
177.91 0.00306838
177.92 0.00265048
177.93 0.00208895
177.94 0.00139325
177.95 0.000571777
177.96 -0.000362848
177.97 -0.00139405
177.98 -0.00250161
177.99 -0.00366218
178 -0.00484983
178.01 -0.0060339
178.02 -0.00718317
178.03 -0.00826843
178.04 -0.00926115
178.05 -0.0101344
178.06 -0.0108634
178.07 -0.0114267
178.08 -0.0118063
178.09 -0.0119803
178.1 -0.0119365
178.11 -0.0116832
178.12 -0.011223
178.13 -0.0105639
178.14 -0.00971884
178.15 -0.0087057
178.16 -0.00754663
178.17 -0.00626765
178.18 -0.00489321
178.19 -0.00346398
178.2 -0.00201456
178.21 -0.000578765
178.22 0.000810035
178.23 0.00211974
178.24 0.00332036
178.25 0.00438481
178.26 0.00528508
178.27 0.0059922
178.28 0.00650403
178.29 0.00681214
178.3 0.00691337
178.31 0.00680984
178.32 0.00650883
178.33 0.00602254
178.34 0.00536773
178.35 0.0045573
178.36 0.00362367
178.37 0.00259877
178.38 0.00151198
178.39 0.000393677
178.4 -0.000725547
178.41 -0.0018157
178.42 -0.00284817
178.43 -0.00379542
178.44 -0.00462344
178.45 -0.00532025
178.46 -0.00587025
178.47 -0.00626209
178.48 -0.00648891
178.49 -0.00654841
178.5 -0.00644283
178.51 -0.00617882
178.52 -0.0057607
178.53 -0.00520576
178.54 -0.00453927
178.55 -0.00378244
178.56 -0.00295848
178.57 -0.00209203
178.58 -0.00120843
178.59 -0.000333067
178.6 0.00050924
178.61 0.00128798
178.62 0.00198454
178.63 0.00258048
178.64 0.00305985
178.65 0.00340993
178.66 0.00362147
178.67 0.00368886
178.68 0.00361019
178.69 0.00338264
178.7 0.00300869
178.71 0.00250664
178.72 0.001889
178.73 0.00117092
178.74 0.000369805
178.75 -0.000495153
178.76 -0.00140343
178.77 -0.00233367
178.78 -0.00326267
178.79 -0.00416683
178.8 -0.00502563
178.81 -0.00581974
178.82 -0.00653143
178.83 -0.00714497
178.84 -0.00764691
178.85 -0.00802632
178.86 -0.00827259
178.87 -0.00837198
178.88 -0.00833282
178.89 -0.00815616
178.9 -0.00784582
178.91 -0.00740829
178.92 -0.0068525
178.93 -0.00618962
178.94 -0.00543282
178.95 -0.00459334
178.96 -0.00369096
178.97 -0.00274592
178.98 -0.00177612
178.99 -0.000799651
179 0.000165532
179.01 0.00110196
179.02 0.00199299
179.03 0.0028229
179.04 0.00356953
179.05 0.00422663
179.06 0.00478396
179.07 0.00523332
179.08 0.00556865
179.09 0.00578616
179.1 0.00588429
179.11 0.00586376
179.12 0.00572292
179.13 0.00546643
179.14 0.0051079
179.15 0.00465659
179.16 0.00412337
179.17 0.0035204
179.18 0.00286098
179.19 0.0021592
179.2 0.00142966
179.21 0.000687383
179.22 -5.06719e-05
179.23 -0.000770083
179.24 -0.00145731
179.25 -0.0020998
179.26 -0.00268625
179.27 -0.00320679
179.28 -0.00365322
179.29 -0.00401688
179.3 -0.00428935
179.31 -0.00447415
179.32 -0.0045712
179.33 -0.00458243
179.34 -0.00451165
179.35 -0.00436446
179.36 -0.00414813
179.37 -0.00387136
179.38 -0.00354153
179.39 -0.00317271
179.4 -0.00277811
179.41 -0.00236989
179.42 -0.00196024
179.43 -0.00156116
179.44 -0.00118416
179.45 -0.00083996
179.46 -0.000538822
179.47 -0.000293721
179.48 -0.000107653
179.49 1.42809e-05
179.5 6.86825e-05
179.51 5.39126e-05
179.52 -2.98972e-05
179.53 -0.000180876
179.54 -0.000395486
179.55 -0.000671213
179.56 -0.00100028
179.57 -0.00137215
179.58 -0.00177789
179.59 -0.00220791
179.6 -0.00265212
179.61 -0.00310023
179.62 -0.003542
179.63 -0.00396748
179.64 -0.00436415
179.65 -0.0047249
179.66 -0.00504235
179.67 -0.00531008
179.68 -0.00552291
179.69 -0.00567695
179.7 -0.00576967
179.71 -0.00579988
179.72 -0.00576561
179.73 -0.00566695
179.74 -0.00551045
179.75 -0.00529987
179.76 -0.00503981
179.77 -0.00473557
179.78 -0.00439291
179.79 -0.00401793
179.8 -0.00361688
179.81 -0.00319495
179.82 -0.00275979
179.83 -0.0023174
179.84 -0.00187291
179.85 -0.0014309
179.86 -0.000995351
179.87 -0.000569566
179.88 -0.000156215
179.89 0.000242369
179.9 0.000623729
179.91 0.000988161
179.92 0.00133525
179.93 0.00166487
179.94 0.0019771
179.95 0.00227208
179.96 0.00254991
179.97 0.00281056
179.98 0.00305268
179.99 0.00327592
180 0.00347982
180.01 0.00366284
180.02 0.00382299
180.03 0.00395788
180.04 0.00406469
180.05 0.00414028
180.06 0.00418118
180.07 0.00418017
180.08 0.00413697
180.09 0.00404824
180.1 0.00391099
180.11 0.00372266
180.12 0.00348133
180.13 0.00318582
180.14 0.00283582
180.15 0.00242981
180.16 0.00196944
180.17 0.00146068
180.18 0.000907883
180.19 0.000316584
180.2 -0.000306558
180.21 -0.000953814
180.22 -0.0016165
180.23 -0.00228509
180.24 -0.00294817
180.25 -0.00359434
180.26 -0.00421266
180.27 -0.00479217
180.28 -0.0053221
180.29 -0.00579216
180.3 -0.00619276
180.31 -0.00651523
180.32 -0.00674954
180.33 -0.00688522
180.34 -0.00692377
180.35 -0.00686252
180.36 -0.00670055
180.37 -0.00643876
180.38 -0.00607991
180.39 -0.00562855
180.4 -0.00509103
180.41 -0.00447085
180.42 -0.00378179
180.43 -0.00303726
180.44 -0.00224961
180.45 -0.0014321
180.46 -0.000598585
180.47 0.000236681
180.48 0.00105938
180.49 0.00185491
180.5 0.00260542
180.51 0.00330068
180.52 0.00392911
180.53 0.0044805
180.54 0.00494615
180.55 0.00531911
180.56 0.00559426
180.57 0.00576849
180.58 0.00583557
180.59 0.00579762
180.6 0.00566259
180.61 0.00543595
180.62 0.005125
180.63 0.00473874
180.64 0.00428763
180.65 0.00378344
180.66 0.00323893
180.67 0.00266646
180.68 0.00208344
180.69 0.00150403
180.7 0.000942026
180.71 0.000410626
180.72 -7.78281e-05
180.73 -0.000512143
180.74 -0.000882534
180.75 -0.00117808
180.76 -0.00139005
180.77 -0.00151893
180.78 -0.001563
180.79 -0.00152267
180.8 -0.00140052
180.81 -0.00120127
180.82 -0.000931611
180.83 -0.000600131
180.84 -0.000214124
180.85 0.000210545
180.86 0.000659783
180.87 0.00111972
180.88 0.00157603
180.89 0.00201428
180.9 0.0024203
180.91 0.00278048
180.92 0.00308082
180.93 0.00330499
180.94 0.00344813
180.95 0.00350273
180.96 0.00346342
180.97 0.00332705
180.98 0.00309291
180.99 0.0027627
181 0.00234055
181.01 0.00182848
181.02 0.00123859
181.03 0.000585184
181.04 -0.000118661
181.05 -0.000858394
181.06 -0.00161831
181.07 -0.00238193
181.08 -0.00313236
181.09 -0.00385254
181.1 -0.00452046
181.11 -0.00512372
181.12 -0.00564825
181.13 -0.00608166
181.14 -0.00641355
181.15 -0.00663575
181.16 -0.0067426
181.17 -0.00673107
181.18 -0.00659582
181.19 -0.00633914
181.2 -0.00597293
181.21 -0.00550564
181.22 -0.00494814
181.23 -0.00431343
181.24 -0.00361639
181.25 -0.00287338
181.26 -0.00210191
181.27 -0.00132084
181.28 -0.00055099
181.29 0.000189444
181.3 0.00088312
181.31 0.00151389
181.32 0.00206719
181.33 0.00253042
181.34 0.00289322
181.35 0.0031446
181.36 0.00327481
181.37 0.00328956
181.38 0.0031902
181.39 0.00298094
181.4 0.00266876
181.41 0.00226323
181.42 0.00177627
181.43 0.00122184
181.44 0.000613293
181.45 -2.83684e-05
181.46 -0.000683828
181.47 -0.00133483
181.48 -0.00196329
181.49 -0.00255174
181.5 -0.00308377
181.51 -0.00354448
181.52 -0.00391959
181.53 -0.00419072
181.54 -0.00435718
181.55 -0.00441389
181.56 -0.00435863
181.57 -0.00419209
181.58 -0.00391784
181.59 -0.00354221
181.6 -0.0030742
181.61 -0.00252174
181.62 -0.00190097
181.63 -0.00123094
181.64 -0.000528535
181.65 0.000188479
181.66 0.00090195
181.67 0.00159377
181.68 0.00224636
181.69 0.00284305
181.7 0.00336084
181.71 0.0037917
181.72 0.00412499
181.73 0.00435226
181.74 0.00446773
181.75 0.00446838
181.76 0.00435409
181.77 0.00412757
181.78 0.0037908
181.79 0.00335107
181.8 0.0028257
181.81 0.00222796
181.82 0.00157288
181.83 0.000876867
181.84 0.000157325
181.85 -0.0005678
181.86 -0.00128045
181.87 -0.00195934
181.88 -0.00258777
181.89 -0.00315099
181.9 -0.0036353
181.91 -0.00402905
181.92 -0.00432287
181.93 -0.00450991
181.94 -0.00458598
181.95 -0.00454741
181.96 -0.00439012
181.97 -0.0041272
181.98 -0.00376601
181.99 -0.00331626
182 -0.00278983
182.01 -0.00220036
182.02 -0.00156298
182.03 -0.000893844
182.04 -0.000209935
182.05 0.000469425
182.06 0.00112714
182.07 0.00174736
182.08 0.00231539
182.09 0.0028181
182.1 0.00324424
182.11 0.00358473
182.12 0.00383237
182.13 0.0039747
182.14 0.00401917
182.15 0.0039675
182.16 0.00382402
182.17 0.00359544
182.18 0.00329073
182.19 0.00292078
182.2 0.00249815
182.21 0.00203563
182.22 0.00154974
182.23 0.00105752
182.24 0.000574094
182.25 0.000114056
182.26 -0.000308928
182.27 -0.000682507
182.28 -0.000995997
182.29 -0.00124067
182.3 -0.00140335
182.31 -0.00148548
182.32 -0.00148685
182.33 -0.00140898
182.34 -0.00125586
182.35 -0.00103384
182.36 -0.000751423
182.37 -0.000418976
182.38 -4.77505e-05
182.39 0.000348419
182.4 0.000753107
182.41 0.00115204
182.42 0.00153114
182.43 0.00187701
182.44 0.0021773
182.45 0.00242115
182.46 0.0025995
182.47 0.00270017
182.48 0.00272155
182.49 0.00266415
182.5 0.00252919
182.51 0.00232049
182.52 0.00204442
182.53 0.00170966
182.54 0.00132701
182.55 0.000908781
182.56 0.000469056
182.57 2.56479e-05
182.58 -0.000405951
182.59 -0.000810359
182.6 -0.00117279
182.61 -0.00147956
182.62 -0.00171851
182.63 -0.00187944
182.64 -0.00194967
182.65 -0.00192464
182.66 -0.0018063
182.67 -0.00159595
182.68 -0.00129797
182.69 -0.000919667
182.7 -0.000471186
182.71 3.47815e-05
182.72 0.000583304
182.73 0.00115832
182.74 0.00173777
182.75 0.00230254
182.76 0.00283342
182.77 0.00331164
182.78 0.00371942
182.79 0.00404053
182.8 0.00426079
182.81 0.004364
182.82 0.00433832
182.83 0.00418557
182.84 0.00390453
182.85 0.00349759
182.86 0.00297069
182.87 0.00233329
182.88 0.00159811
182.89 0.000780856
182.9 -0.000103505
182.91 -0.0010286
182.92 -0.00197111
182.93 -0.00290798
182.94 -0.00381597
182.95 -0.00467225
182.96 -0.00545506
182.97 -0.00614427
182.98 -0.00671918
182.99 -0.00715671
183 -0.00745384
183.01 -0.00760272
183.02 -0.0075992
183.03 -0.00744296
183.04 -0.00713746
183.05 -0.00668983
183.06 -0.0061107
183.07 -0.00540772
183.08 -0.0046029
183.09 -0.00371941
183.1 -0.00277818
183.11 -0.00180113
183.12 -0.000810646
183.13 0.000171065
183.14 0.00112255
183.15 0.00202324
183.16 0.00284757
183.17 0.00358483
183.18 0.00422227
183.19 0.00475016
183.2 0.00516189
183.21 0.00545408
183.22 0.00562652
183.23 0.0056821
183.24 0.00562192
183.25 0.00545532
183.26 0.00519874
183.27 0.00486492
183.28 0.00446783
183.29 0.00402222
183.3 0.00354313
183.31 0.00304543
183.32 0.00254333
183.33 0.00205179
183.34 0.00158273
183.35 0.00114573
183.36 0.000748515
183.37 0.000396751
183.38 9.3985e-05
183.39 -0.00015832
183.4 -0.000360682
183.41 -0.000514127
183.42 -0.000621652
183.43 -0.000691765
183.44 -0.000730813
183.45 -0.000745685
183.46 -0.000743471
183.47 -0.000731114
183.48 -0.000715091
183.49 -0.000701122
183.5 -0.000694642
183.51 -0.000699029
183.52 -0.000715935
183.53 -0.000745773
183.54 -0.000787538
183.55 -0.000838875
183.56 -0.000896215
183.57 -0.000954949
183.58 -0.00100951
183.59 -0.00105261
183.6 -0.00107842
183.61 -0.00108082
183.62 -0.00105412
183.63 -0.000993338
183.64 -0.000894444
183.65 -0.000754594
183.66 -0.000572294
183.67 -0.000345324
183.68 -7.61519e-05
183.69 0.000230087
183.7 0.000568541
183.71 0.000933048
183.72 0.00131632
183.73 0.0017102
183.74 0.00210591
183.75 0.00249434
183.76 0.00286406
183.77 0.00320723
183.78 0.00351594
183.79 0.00378328
183.8 0.00400357
183.81 0.00417259
183.82 0.00428771
183.83 0.004348
183.84 0.00435227
183.85 0.00430256
183.86 0.00420628
183.87 0.00406921
183.88 0.00389826
183.89 0.00370122
183.9 0.00348644
183.91 0.00326255
183.92 0.00303806
183.93 0.00282229
183.94 0.0026227
183.95 0.00244527
183.96 0.00229478
183.97 0.00217452
183.98 0.00208621
183.99 0.00202986
184 0.00200388
184.01 0.00200559
184.02 0.00203087
184.03 0.00207176
184.04 0.00212134
184.05 0.00217215
184.06 0.00221649
184.07 0.00224681
184.08 0.00225605
184.09 0.00223796
184.1 0.00218522
184.11 0.00209493
184.12 0.00196654
184.13 0.00180027
184.14 0.00159822
184.15 0.00136436
184.16 0.00110446
184.17 0.000825916
184.18 0.000537504
184.19 0.000250143
184.2 -2.47423e-05
184.21 -0.000276252
184.22 -0.000493718
184.23 -0.000667143
184.24 -0.000787636
184.25 -0.000847823
184.26 -0.000842215
184.27 -0.000764267
184.28 -0.000613258
184.29 -0.00039491
184.3 -0.000114283
184.31 0.000220945
184.32 0.000600632
184.33 0.00101242
184.34 0.00144206
184.35 0.00187386
184.36 0.0022884
184.37 0.00266825
184.38 0.00299675
184.39 0.00325802
184.4 0.00343772
184.41 0.00352354
184.42 0.00350578
184.43 0.00337777
184.44 0.00313272
184.45 0.00276779
184.46 0.00229529
184.47 0.00172411
184.48 0.00106681
184.49 0.000339383
184.5 -0.000439151
184.51 -0.00124719
184.52 -0.00206116
184.53 -0.00285296
184.54 -0.00359536
184.55 -0.00426373
184.56 -0.00483407
184.57 -0.00528431
184.58 -0.00559503
184.59 -0.0057501
184.6 -0.00573727
184.61 -0.00554589
184.62 -0.0051615
184.63 -0.004601
184.64 -0.00387226
184.65 -0.002988
184.66 -0.00196554
184.67 -0.00082638
184.68 0.000404326
184.69 0.0016984
184.7 0.0030254
184.71 0.004349
184.72 0.00563559
184.73 0.00685331
184.74 0.00797175
184.75 0.00896278
184.76 0.00980137
184.77 0.0104663
184.78 0.0109406
184.79 0.0111925
184.8 0.0112348
184.81 0.0110672
184.82 0.0106949
184.83 0.0101285
184.84 0.00938311
184.85 0.00847864
184.86 0.00743871
184.87 0.00628713
184.88 0.00505574
184.89 0.00378147
184.9 0.00249597
184.91 0.00123055
184.92 1.5334e-05
184.93 -0.00112155
184.94 -0.00215468
184.95 -0.00306192
184.96 -0.00381259
184.97 -0.00440114
184.98 -0.0048215
184.99 -0.00506999
185 -0.00514752
185.01 -0.00505943
185.02 -0.00481524
185.03 -0.00442816
185.04 -0.00391215
185.05 -0.00328358
185.06 -0.0025727
185.07 -0.0018021
185.08 -0.000994832
185.09 -0.00017373
185.1 0.000639228
185.11 0.00142349
185.12 0.00216046
185.13 0.002829
185.14 0.00341652
185.15 0.00391522
185.16 0.00431831
185.17 0.0046221
185.18 0.00482586
185.19 0.00493166
185.2 0.00494411
185.21 0.00486937
185.22 0.00471098
185.23 0.00448659
185.24 0.00420736
185.25 0.00388488
185.26 0.00353075
185.27 0.00315626
185.28 0.002772
185.29 0.00238767
185.3 0.00201255
185.31 0.00165464
185.32 0.00131906
185.33 0.00101
185.34 0.000730389
185.35 0.000481986
185.36 0.000265548
185.37 8.1031e-05
185.38 -7.21964e-05
185.39 -0.000192596
185.4 -0.000283805
185.41 -0.000347088
185.42 -0.000383214
185.43 -0.000392563
185.44 -0.000375053
185.45 -0.000330111
185.46 -0.000256702
185.47 -0.000152393
185.48 -1.4324e-05
185.49 0.000157382
185.5 0.000364315
185.51 0.000607667
185.52 0.000887996
185.53 0.00120499
185.54 0.00155725
185.55 0.0019421
185.56 0.00235709
185.57 0.00279443
185.58 0.00324594
185.59 0.00370262
185.6 0.00415408
185.61 0.00458876
185.62 0.00499417
185.63 0.00535724
185.64 0.00566351
185.65 0.0058943
185.66 0.00604186
185.67 0.00609517
185.68 0.00604487
185.69 0.00588371
185.7 0.00560691
185.71 0.00521251
185.72 0.0047016
185.73 0.0040727
185.74 0.00333675
185.75 0.00250974
185.76 0.00160645
185.77 0.000644483
185.78 -0.000356099
185.79 -0.00137324
185.8 -0.00238342
185.81 -0.00336222
185.82 -0.00427756
185.83 -0.00510893
185.84 -0.00583383
185.85 -0.00643181
185.86 -0.00688508
185.87 -0.00717909
185.88 -0.00730302
185.89 -0.00725014
185.9 -0.00701099
185.91 -0.00658614
185.92 -0.00599313
185.93 -0.00524419
185.94 -0.00435562
185.95 -0.00334744
185.96 -0.00224285
185.97 -0.00106762
185.98 0.000150595
185.99 0.00138182
186 0.00259338
186.01 0.00375679
186.02 0.00484524
186.03 0.00583413
186.04 0.00670182
186.05 0.00743016
186.06 0.00800502
186.07 0.00841249
186.08 0.00863976
186.09 0.00869902
186.1 0.0085956
186.11 0.00833922
186.12 0.00794366
186.13 0.0074263
186.14 0.00680754
186.15 0.00611012
186.16 0.0053566
186.17 0.00457688
186.18 0.00379772
186.19 0.00304341
186.2 0.00233662
186.21 0.00169773
186.22 0.00114426
186.23 0.00069033
186.24 0.000347432
186.25 0.00013113
186.26 3.32645e-05
186.27 5.11641e-05
186.28 0.000178299
186.29 0.000404586
186.3 0.000716802
186.31 0.00109909
186.32 0.00153355
186.33 0.00200145
186.34 0.00248008
186.35 0.00294808
186.36 0.00338629
186.37 0.00377703
186.38 0.00410459
186.39 0.00435581
186.4 0.00452039
186.41 0.00459128
186.42 0.0045562
186.43 0.00442342
186.44 0.00419755
186.45 0.00388575
186.46 0.00349804
186.47 0.00304697
186.48 0.0025471
186.49 0.00201452
186.5 0.00146636
186.51 0.000922065
186.52 0.000399464
186.53 -8.54036e-05
186.54 -0.000517969
186.55 -0.000885598
186.56 -0.00117798
186.57 -0.00138742
186.58 -0.00150908
186.59 -0.00153464
186.6 -0.00147022
186.61 -0.00132241
186.62 -0.00109842
186.63 -0.000807812
186.64 -0.000462116
186.65 -7.44287e-05
186.66 0.00034105
186.67 0.000769454
186.68 0.00119418
186.69 0.00160003
186.7 0.00197356
186.71 0.00230272
186.72 0.0025772
186.73 0.0027887
186.74 0.00293115
186.75 0.00300089
186.76 0.00299254
186.77 0.00290918
186.78 0.00275761
186.79 0.00254395
186.8 0.00227613
186.81 0.00196359
186.82 0.00161696
186.83 0.00124769
186.84 0.000867644
186.85 0.000489917
186.86 0.000126746
186.87 -0.000211223
186.88 -0.000514422
186.89 -0.000774608
186.9 -0.000985066
186.91 -0.00114075
186.92 -0.00123838
186.93 -0.00127399
186.94 -0.00124735
186.95 -0.0011639
186.96 -0.00102738
186.97 -0.000842817
186.98 -0.000616302
186.99 -0.000354763
187 -6.5712e-05
187.01 0.000243006
187.02 0.00056377
187.03 0.000887346
187.04 0.00120627
187.05 0.00151382
187.06 0.00180398
187.07 0.00207157
187.08 0.0023123
187.09 0.00252279
187.1 0.00269975
187.11 0.00284006
187.12 0.00294551
187.13 0.00301631
187.14 0.00305336
187.15 0.00305808
187.16 0.00303233
187.17 0.00297831
187.18 0.00289847
187.19 0.0027941
187.2 0.00266902
187.21 0.00252664
187.22 0.00236969
187.23 0.00220089
187.24 0.0020229
187.25 0.0018384
187.26 0.00165005
187.27 0.00146052
187.28 0.00127293
187.29 0.00109011
187.3 0.000914894
187.31 0.000750163
187.32 0.000598834
187.33 0.000463816
187.34 0.000347959
187.35 0.000253984
187.36 0.000185724
187.37 0.0001455
187.38 0.00013388
187.39 0.000152005
187.4 0.000200372
187.41 0.000278744
187.42 0.000386075
187.43 0.00052045
187.44 0.000679058
187.45 0.000859607
187.46 0.00105529
187.47 0.00126044
187.48 0.00146885
187.49 0.0016738
187.5 0.00186823
187.51 0.00204496
187.52 0.00219687
187.53 0.00231594
187.54 0.00239433
187.55 0.00242892
187.56 0.00241573
187.57 0.00235209
187.58 0.00223684
187.59 0.00207044
187.6 0.00185507
187.61 0.00159462
187.62 0.00129235
187.63 0.000958496
187.64 0.000602876
187.65 0.000235686
187.66 -0.000131961
187.67 -0.000488343
187.68 -0.00082148
187.69 -0.00111951
187.7 -0.00137
187.71 -0.00155819
187.72 -0.00167887
187.73 -0.00172486
187.74 -0.00169093
187.75 -0.00157405
187.76 -0.00137357
187.77 -0.0010913
187.78 -0.000731493
187.79 -0.000297295
187.8 0.000199498
187.81 0.000744889
187.82 0.0013258
187.83 0.00192788
187.84 0.00253593
187.85 0.0031344
187.86 0.00370779
187.87 0.00424111
187.88 0.0047146
187.89 0.00512033
187.9 0.00544854
187.91 0.00569184
187.92 0.0058455
187.93 0.00590759
187.94 0.00587905
187.95 0.00576374
187.96 0.00556527
187.97 0.00529354
187.98 0.00496458
187.99 0.00459205
188 0.0041909
188.01 0.00377687
188.02 0.00336597
188.03 0.00297388
188.04 0.00261544
188.05 0.00230888
188.06 0.00206325
188.07 0.00188661
188.08 0.00178491
188.09 0.0017612
188.1 0.00181545
188.11 0.00194456
188.12 0.00214244
188.13 0.00240149
188.14 0.00271081
188.15 0.00305255
188.16 0.00341134
188.17 0.00377088
188.18 0.00411452
188.19 0.00442585
188.2 0.00468931
188.21 0.00489078
188.22 0.00501253
188.23 0.00504698
188.24 0.00499008
188.25 0.00483882
188.26 0.00459349
188.27 0.00425773
188.28 0.00383843
188.29 0.00334555
188.3 0.0027913
188.31 0.00218911
188.32 0.00156106
188.33 0.000925444
188.34 0.000300965
188.35 -0.000293861
188.36 -0.00084138
188.37 -0.00132542
188.38 -0.00173188
188.39 -0.00204427
188.4 -0.00225403
188.41 -0.00236076
188.42 -0.00236363
188.43 -0.00226539
188.44 -0.0020723
188.45 -0.00179388
188.46 -0.00144261
188.47 -0.00103343
188.48 -0.000581202
188.49 -0.000109279
188.5 0.000363291
188.51 0.000817898
188.52 0.0012369
188.53 0.00160428
188.54 0.00190632
188.55 0.00213208
188.56 0.00227082
188.57 0.00231629
188.58 0.00227417
188.59 0.00214898
188.6 0.00194893
188.61 0.0016857
188.62 0.00137401
188.63 0.00103112
188.64 0.000676221
188.65 0.000331872
188.66 2.04189e-05
188.67 -0.000238208
188.68 -0.00042529
188.69 -0.000524306
188.7 -0.000521646
188.71 -0.000407228
188.72 -0.000175014
188.73 0.000178856
188.74 0.000656985
188.75 0.00124152
188.76 0.00191903
188.77 0.00267183
188.78 0.00347848
188.79 0.00431438
188.8 0.00515253
188.81 0.00596434
188.82 0.00671562
188.83 0.00737562
188.84 0.00791945
188.85 0.0083227
188.86 0.00856442
188.87 0.00862795
188.88 0.00850158
188.89 0.00817912
188.9 0.00765952
188.91 0.00693306
188.92 0.00603073
188.93 0.00497149
188.94 0.00377955
188.95 0.00248381
188.96 0.00111705
188.97 -0.000285016
188.98 -0.00168478
188.99 -0.00304036
189 -0.0043085
189.01 -0.00545567
189.02 -0.006449
189.03 -0.00725966
189.04 -0.00786379
189.05 -0.00824328
189.06 -0.00838642
189.07 -0.00828825
189.08 -0.00793186
189.09 -0.00734522
189.1 -0.0065486
189.11 -0.00556566
189.12 -0.00442557
189.13 -0.00316215
189.14 -0.00181291
189.15 -0.000417876
189.16 0.000980513
189.17 0.00233479
189.18 0.00360534
189.19 0.00475521
189.2 0.00575129
189.21 0.00656538
189.22 0.00717498
189.23 0.00756402
189.24 0.00772329
189.25 0.00763556
189.26 0.00731679
189.27 0.00678707
189.28 0.00606661
189.29 0.00518141
189.3 0.00416242
189.31 0.00304455
189.32 0.0018656
189.33 0.000665269
189.34 -0.000511226
189.35 -0.00162395
189.36 -0.00263655
189.37 -0.00351615
189.38 -0.0042343
189.39 -0.00476785
189.4 -0.00509962
189.41 -0.00521889
189.42 -0.00511065
189.43 -0.00478082
189.44 -0.00424971
189.45 -0.00353444
189.46 -0.00265772
189.47 -0.00164702
189.48 -0.000533727
189.49 0.000647924
189.5 0.0018619
189.51 0.00306781
189.52 0.00422714
189.53 0.00530594
189.54 0.00627311
189.55 0.00710138
189.56 0.00776804
189.57 0.00825558
189.58 0.0085521
189.59 0.00864452
189.6 0.00852903
189.61 0.00822431
189.62 0.00774282
189.63 0.00710194
189.64 0.00632323
189.65 0.0054317
189.66 0.00445493
189.67 0.00342215
189.68 0.0023636
189.69 0.00131312
189.7 0.000299192
189.71 -0.000652416
189.72 -0.0015189
189.73 -0.00228104
189.74 -0.00292366
189.75 -0.00343597
189.76 -0.00380889
189.77 -0.00403358
189.78 -0.00412393
189.79 -0.00408766
189.8 -0.00393603
189.81 -0.00368333
189.82 -0.00334619
189.83 -0.00294292
189.84 -0.0024928
189.85 -0.00201481
189.86 -0.00153066
189.87 -0.00105863
189.88 -0.000614222
189.89 -0.000210569
189.9 0.000141948
189.91 0.000435947
189.92 0.000667162
189.93 0.000834156
189.94 0.000933967
189.95 0.000977556
189.96 0.00097245
189.97 0.000928036
189.98 0.000855052
189.99 0.00076504
190 0.000669778
190.01 0.00058072
190.02 0.000509632
190.03 0.000466854
190.04 0.000458454
190.05 0.000489218
190.06 0.000561527
190.07 0.000675247
190.08 0.000827724
190.09 0.00101389
190.1 0.00122645
190.11 0.00145676
190.12 0.00169171
190.13 0.00191916
190.14 0.00212671
190.15 0.00230209
190.16 0.0024336
190.17 0.00251071
190.18 0.00252447
190.19 0.00246583
190.2 0.00232723
190.21 0.0021121
190.22 0.00182196
190.23 0.00146119
190.24 0.0010369
190.25 0.000558738
190.26 3.86693e-05
190.27 -0.000509454
190.28 -0.00107004
190.29 -0.00162449
190.3 -0.00215582
190.31 -0.00264766
190.32 -0.00308453
190.33 -0.00345233
190.34 -0.00373887
190.35 -0.0039343
190.36 -0.00403012
190.37 -0.00401499
190.38 -0.00389667
190.39 -0.00367801
190.4 -0.00336492
190.41 -0.00296628
190.42 -0.00249355
190.43 -0.00196051
190.44 -0.00138273
190.45 -0.000776637
190.46 -0.000162454
190.47 0.000440877
190.48 0.001016
190.49 0.00154659
190.5 0.0020179
190.51 0.00241717
190.52 0.00273402
190.53 0.00296073
190.54 0.00308355
190.55 0.00310946
190.56 0.00304051
190.57 0.00288133
190.58 0.00263918
190.59 0.00232364
190.6 0.00194623
190.61 0.00152002
190.62 0.00105842
190.63 0.000577533
190.64 9.39424e-05
190.65 -0.00037817
190.66 -0.000825603
190.67 -0.00123652
190.68 -0.0016008
190.69 -0.00191028
190.7 -0.00215894
190.71 -0.00233797
190.72 -0.00244985
190.73 -0.00249695
190.74 -0.00248248
190.75 -0.00241139
190.76 -0.00229009
190.77 -0.00212615
190.78 -0.00192789
190.79 -0.00170368
190.8 -0.00146229
190.81 -0.00121372
190.82 -0.00096543
190.83 -0.000723834
190.84 -0.000494094
190.85 -0.000279961
190.86 -8.36997e-05
190.87 9.39294e-05
190.88 0.000252636
190.89 0.000395288
190.9 0.000525813
190.91 0.000648343
190.92 0.000767512
190.93 0.00088815
190.94 0.00101495
190.95 0.00115214
190.96 0.00130329
190.97 0.0014723
190.98 0.00165871
190.99 0.0018619
191 0.00207965
191.01 0.00230816
191.02 0.00254214
191.03 0.00277485
191.04 0.00299839
191.05 0.00320262
191.06 0.0033767
191.07 0.00351181
191.08 0.00359842
191.09 0.00362765
191.1 0.00359161
191.11 0.00348383
191.12 0.00329958
191.13 0.00303617
191.14 0.00268659
191.15 0.00225938
191.16 0.0017604
191.17 0.00119721
191.18 0.000579686
191.19 -8.01289e-05
191.2 -0.000768361
191.21 -0.00146964
191.22 -0.00216689
191.23 -0.00284037
191.24 -0.00347339
191.25 -0.00404942
191.26 -0.00455305
191.27 -0.00497039
191.28 -0.00528958
191.29 -0.00550116
191.3 -0.00559837
191.31 -0.0055692
191.32 -0.00541856
191.33 -0.00515268
191.34 -0.00477788
191.35 -0.00430336
191.36 -0.00374102
191.37 -0.00310501
191.38 -0.00241139
191.39 -0.00167734
191.4 -0.000921717
191.41 -0.000166192
191.42 0.000570929
191.43 0.00127225
191.44 0.00192178
191.45 0.00250539
191.46 0.00301119
191.47 0.00342988
191.48 0.00374968
191.49 0.00396813
191.5 0.00408912
191.51 0.00411552
191.52 0.00405287
191.53 0.00390908
191.54 0.00369414
191.55 0.00341967
191.56 0.0030985
191.57 0.00274235
191.58 0.00236908
191.59 0.00199204
191.6 0.00162368
191.61 0.00127518
191.62 0.000956054
191.63 0.000673928
191.64 0.00043428
191.65 0.000242106
191.66 9.90389e-05
191.67 6.64772e-07
191.68 -5.68621e-05
191.69 -7.91832e-05
191.7 -7.34286e-05
191.71 -4.78548e-05
191.72 -1.1445e-05
191.73 2.65159e-05
191.74 5.56075e-05
191.75 6.70117e-05
191.76 5.35261e-05
191.77 9.19534e-06
191.78 -7.02653e-05
191.79 -0.000187261
191.8 -0.00034219
191.81 -0.000533392
191.82 -0.000757788
191.83 -0.00101035
191.84 -0.00128115
191.85 -0.00156128
191.86 -0.00184082
191.87 -0.00210932
191.88 -0.00235619
191.89 -0.00257113
191.9 -0.00274459
191.91 -0.00286465
191.92 -0.00292541
191.93 -0.00292402
191.94 -0.00285816
191.95 -0.00272783
191.96 -0.00253541
191.97 -0.00228564
191.98 -0.00198552
191.99 -0.00164388
192 -0.00127019
192.01 -0.000880332
192.02 -0.000487494
192.03 -0.00010518
192.04 0.000253296
192.05 0.00057533
192.06 0.000849524
192.07 0.00106616
192.08 0.00121436
192.09 0.0012885
192.1 0.00129
192.11 0.00121998
192.12 0.00108252
192.13 0.000884582
192.14 0.000635783
192.15 0.000348156
192.16 3.57373e-05
192.17 -0.000285257
192.18 -0.000596043
192.19 -0.000879644
192.2 -0.00111958
192.21 -0.00130045
192.22 -0.00140854
192.23 -0.00143242
192.24 -0.00136346
192.25 -0.00119323
192.26 -0.000916852
192.27 -0.000543606
192.28 -8.035e-05
192.29 0.000462215
192.3 0.00106977
192.31 0.00172472
192.32 0.00240665
192.33 0.00309292
192.34 0.00375618
192.35 0.00436974
192.36 0.00490937
192.37 0.00535137
192.38 0.00567395
192.39 0.00585805
192.4 0.00588805
192.41 0.00575241
192.42 0.0054416
192.43 0.00494291
192.44 0.00427483
192.45 0.00344742
192.46 0.00247605
192.47 0.001381
192.48 0.000187102
192.49 -0.00107692
192.5 -0.00237917
192.51 -0.00368367
192.52 -0.00495046
192.53 -0.00614381
192.54 -0.00722902
192.55 -0.00817347
192.56 -0.00894767
192.57 -0.00952614
192.58 -0.00988832
192.59 -0.0100193
192.6 -0.0098874
192.61 -0.009514
192.62 -0.00890539
192.63 -0.00807454
192.64 -0.00704091
192.65 -0.00583005
192.66 -0.00447292
192.67 -0.00300515
192.68 -0.00146499
192.69 0.00010073
192.7 0.00164479
192.71 0.00312372
192.72 0.00449533
192.73 0.00572
192.74 0.00676175
192.75 0.00758935
192.76 0.00817722
192.77 0.00848496
192.78 0.00851664
192.79 0.00827363
192.8 0.00776073
192.81 0.0069903
192.82 0.00598191
192.83 0.00476191
192.84 0.00336262
192.85 0.00181927
192.86 0.000173618
192.87 -0.00151961
192.88 -0.00321403
192.89 -0.00486316
192.9 -0.00642178
192.91 -0.00784712
192.92 -0.00910011
192.93 -0.0101464
192.94 -0.0109413
192.95 -0.0114684
192.96 -0.011722
192.97 -0.0116965
192.98 -0.0113936
192.99 -0.0108229
193 -0.010001
193.01 -0.00895128
193.02 -0.0077018
193.03 -0.00627797
193.04 -0.00473591
193.05 -0.00311765
193.06 -0.00146663
193.07 0.00017347
193.08 0.00176
193.09 0.00325249
193.1 0.00461378
193.11 0.00580184
193.12 0.00678612
193.13 0.00755416
193.14 0.00809198
193.15 0.00839232
193.16 0.00845468
193.17 0.0082852
193.18 0.00789629
193.19 0.00730617
193.2 0.00652514
193.21 0.00559782
193.22 0.0045572
193.23 0.00343694
193.24 0.00227177
193.25 0.00109636
193.26 -5.5701e-05
193.27 -0.00115286
193.28 -0.00216305
193.29 -0.00305566
193.3 -0.00381686
193.31 -0.00443229
193.32 -0.00489286
193.33 -0.00519484
193.34 -0.0053398
193.35 -0.00533435
193.36 -0.00518981
193.37 -0.00491417
193.38 -0.00453466
193.39 -0.00407627
193.4 -0.00356284
193.41 -0.00301902
193.42 -0.0024694
193.43 -0.00193768
193.44 -0.00144586
193.45 -0.00101478
193.46 -0.000667103
193.47 -0.000410058
193.48 -0.000251803
193.49 -0.000196351
193.5 -0.000243547
193.51 -0.000389178
193.52 -0.000625235
193.53 -0.000940299
193.54 -0.00132267
193.55 -0.00175239
193.56 -0.00220846
193.57 -0.00267162
193.58 -0.0031226
193.59 -0.0035429
193.6 -0.00391544
193.61 -0.00422522
193.62 -0.00445978
193.63 -0.00460132
193.64 -0.00465201
193.65 -0.00461037
193.66 -0.00447861
193.67 -0.00426248
193.68 -0.00397108
193.69 -0.00361646
193.7 -0.00321322
193.71 -0.0027774
193.72 -0.00232902
193.73 -0.00188833
193.74 -0.00147378
193.75 -0.00110289
193.76 -0.000791662
193.77 -0.000553938
193.78 -0.000400891
193.79 -0.00034059
193.8 -0.000385497
193.81 -0.000529865
193.82 -0.000768667
193.83 -0.00109476
193.84 -0.00149763
193.85 -0.00196375
193.86 -0.00247702
193.87 -0.0030193
193.88 -0.00357078
193.89 -0.00410841
193.9 -0.00461157
193.91 -0.00506094
193.92 -0.00543874
193.93 -0.00572938
193.94 -0.00591997
193.95 -0.00600079
193.96 -0.00596568
193.97 -0.00580478
193.98 -0.00552425
193.99 -0.00513394
194 -0.00464374
194.01 -0.00406684
194.02 -0.00341931
194.03 -0.00271962
194.04 -0.00198798
194.05 -0.00124581
194.06 -0.000517832
194.07 0.00017415
194.08 0.000810158
194.09 0.00137208
194.1 0.00184425
194.11 0.00221396
194.12 0.00247186
194.13 0.00261223
194.14 0.00262747
194.15 0.00252051
194.16 0.00230336
194.17 0.00198593
194.18 0.00158119
194.19 0.00110462
194.2 0.000573753
194.21 7.45279e-06
194.22 -0.00057469
194.23 -0.00115107
194.24 -0.00170166
194.25 -0.00220932
194.26 -0.00265895
194.27 -0.003038
194.28 -0.00333691
194.29 -0.00354937
194.3 -0.00367248
194.31 -0.00370406
194.32 -0.00364646
194.33 -0.00351299
194.34 -0.00331422
194.35 -0.00306299
194.36 -0.00277385
194.37 -0.00246251
194.38 -0.00214514
194.39 -0.00183773
194.4 -0.00155826
194.41 -0.00132028
194.42 -0.00113428
194.43 -0.00100875
194.44 -0.000949155
194.45 -0.000957765
194.46 -0.00103348
194.47 -0.00117187
194.48 -0.00136606
194.49 -0.00160675
194.5 -0.00187618
194.51 -0.00215884
194.52 -0.00243794
194.53 -0.00269608
194.54 -0.00291595
194.55 -0.00308104
194.56 -0.00317632
194.57 -0.00318368
194.58 -0.0030938
194.59 -0.00290389
194.6 -0.00261169
194.61 -0.0022189
194.62 -0.00173129
194.63 -0.00115859
194.64 -0.000514329
194.65 0.000184575
194.66 0.000919246
194.67 0.00166218
194.68 0.00238923
194.69 0.00307563
194.7 0.00369679
194.71 0.00422919
194.72 0.00465122
194.73 0.00494394
194.74 0.0050854
194.75 0.0050613
194.76 0.00487371
194.77 0.0045218
194.78 0.00400989
194.79 0.00334735
194.8 0.0025485
194.81 0.00163224
194.82 0.000621501
194.83 -0.000460478
194.84 -0.00157722
194.85 -0.00269684
194.86 -0.00378787
194.87 -0.00481929
194.88 -0.00576153
194.89 -0.00658744
194.9 -0.00727317
194.91 -0.00779446
194.92 -0.0081276
194.93 -0.0082754
194.94 -0.00823516
194.95 -0.00800995
194.96 -0.00760858
194.97 -0.00704534
194.98 -0.00633951
194.99 -0.00551482
195 -0.00459475
195.01 -0.00361626
195.02 -0.00261416
195.03 -0.00162111
195.04 -0.000669156
195.05 0.000211313
195.06 0.000992563
195.07 0.00165042
195.08 0.00216353
195.09 0.00250434
195.1 0.00267731
195.11 0.00268036
195.12 0.0025173
195.13 0.00219766
195.14 0.00173633
195.15 0.00115307
195.16 0.000471735
195.17 -0.00028246
195.18 -0.00107579
195.19 -0.00187431
195.2 -0.00264725
195.21 -0.00336503
195.22 -0.00400034
195.23 -0.00452908
195.24 -0.00493128
195.25 -0.00519178
195.26 -0.00528704
195.27 -0.0052263
195.28 -0.0050138
195.29 -0.00465877
195.3 -0.00417598
195.31 -0.00358523
195.32 -0.00291071
195.33 -0.00218009
195.34 -0.00142388
195.35 -0.000677757
195.36 2.50782e-05
195.37 0.000653877
195.38 0.00118018
195.39 0.00157887
195.4 0.00182914
195.41 0.00191528
195.42 0.00182739
195.43 0.00154897
195.44 0.00109333
195.45 0.000475076
195.46 -0.000288755
195.47 -0.0011754
195.48 -0.00215706
195.49 -0.00320172
195.5 -0.00427423
195.51 -0.00533645
195.52 -0.00634358
195.53 -0.00725954
195.54 -0.00804918
195.55 -0.00868061
195.56 -0.00912634
195.57 -0.00936427
195.58 -0.00937844
195.59 -0.00915973
195.6 -0.00869303
195.61 -0.00799035
195.62 -0.00707484
195.63 -0.00596787
195.64 -0.00469708
195.65 -0.00329559
195.66 -0.00180099
195.67 -0.000254218
195.68 0.00130159
195.69 0.00281541
195.7 0.00424427
195.71 0.00554772
195.72 0.0066889
195.73 0.00763572
195.74 0.00836184
195.75 0.00884752
195.76 0.00908021
195.77 0.00904427
195.78 0.00874116
195.79 0.00819667
195.8 0.00743015
195.81 0.0064675
195.82 0.00534025
195.83 0.00408459
195.84 0.00274018
195.85 0.00134887
195.86 -4.34518e-05
195.87 -0.00139072
195.88 -0.00265325
195.89 -0.00379483
195.9 -0.00478381
195.91 -0.00559404
195.92 -0.00620572
195.93 -0.00660589
195.94 -0.00678309
195.95 -0.00673093
195.96 -0.00647461
195.97 -0.00603115
195.98 -0.00542353
195.99 -0.00467989
196 -0.00383247
196.01 -0.00291651
196.02 -0.00196902
196.03 -0.00103037
196.04 -0.000140746
196.05 0.000666169
196.06 0.00135988
196.07 0.00191439
196.08 0.002309
196.09 0.00252897
196.1 0.00256599
196.11 0.00241643
196.12 0.00207329
196.13 0.00156483
196.14 0.000909604
196.15 0.000131289
196.16 -0.000742229
196.17 -0.00167983
196.18 -0.00264826
196.19 -0.00361331
196.2 -0.00453737
196.21 -0.00538429
196.22 -0.00612659
196.23 -0.00673874
196.24 -0.00719981
196.25 -0.00749422
196.26 -0.00761216
196.27 -0.0075499
196.28 -0.00730992
196.29 -0.00688685
196.3 -0.00631138
196.31 -0.00560486
196.32 -0.00479211
196.33 -0.00390134
196.34 -0.00296319
196.35 -0.00200965
196.36 -0.00107296
196.37 -0.000187305
196.38 0.000612663
196.39 0.00130428
196.4 0.00186572
196.41 0.00227977
196.42 0.00253446
196.43 0.0026233
196.44 0.00254553
196.45 0.002306
196.46 0.00190495
196.47 0.00136805
196.48 0.000719047
196.49 -1.79168e-05
196.5 -0.000816053
196.51 -0.00164689
196.52 -0.00248126
196.53 -0.0032903
196.54 -0.00404486
196.55 -0.00471273
196.56 -0.0052767
196.57 -0.00571917
196.58 -0.00602701
196.59 -0.0061919
196.6 -0.00621061
196.61 -0.00608494
196.62 -0.00582167
196.63 -0.00542574
196.64 -0.00491794
196.65 -0.00432263
196.66 -0.00366234
196.67 -0.00296147
196.68 -0.0022454
196.69 -0.00153959
196.7 -0.00086875
196.71 -0.000256286
196.72 0.00026845
196.73 0.000694193
196.74 0.00100777
196.75 0.00120012
196.76 0.00126649
196.77 0.00120659
196.78 0.00102446
196.79 0.000728303
196.8 0.000326415
196.81 -0.000164303
196.82 -0.000720051
196.83 -0.00132028
196.84 -0.00194327
196.85 -0.00256681
196.86 -0.00316903
196.87 -0.00372903
196.88 -0.00422759
196.89 -0.00464012
196.9 -0.00495718
196.91 -0.00516951
196.92 -0.0052704
196.93 -0.00525674
196.94 -0.00512905
196.95 -0.00489131
196.96 -0.00455078
196.97 -0.00411548
196.98 -0.0035966
196.99 -0.00301536
197 -0.00238818
197.01 -0.00173229
197.02 -0.00106509
197.03 -0.000403676
197.04 0.000235716
197.05 0.000838132
197.06 0.00138617
197.07 0.00186965
197.08 0.00228148
197.09 0.00261552
197.1 0.00286801
197.11 0.00303751
197.12 0.00312474
197.13 0.00313241
197.14 0.0030641
197.15 0.00292143
197.16 0.00271762
197.17 0.00246039
197.18 0.00215778
197.19 0.00181782
197.2 0.00144829
197.21 0.00105647
197.22 0.000648975
197.23 0.00023141
197.24 -0.000190653
197.25 -0.000612863
197.26 -0.00103204
197.27 -0.00144564
197.28 -0.00185166
197.29 -0.00224841
197.3 -0.00263437
197.31 -0.00300799
197.32 -0.00336603
197.33 -0.00370736
197.34 -0.00402933
197.35 -0.00432867
197.36 -0.00460156
197.37 -0.00484364
197.38 -0.00505015
197.39 -0.00521602
197.4 -0.00533432
197.41 -0.00539832
197.42 -0.00540635
197.43 -0.00535473
197.44 -0.00524086
197.45 -0.00506343
197.46 -0.00482269
197.47 -0.00452061
197.48 -0.00416104
197.49 -0.00374648
197.5 -0.0032886
197.51 -0.0027984
197.52 -0.00228754
197.53 -0.00176905
197.54 -0.00125699
197.55 -0.000766074
197.56 -0.000311198
197.57 9.17252e-05
197.58 0.000424065
197.59 0.000677697
197.6 0.000842518
197.61 0.000910823
197.62 0.000877683
197.63 0.00074125
197.64 0.000502968
197.65 0.000167681
197.66 -0.000260956
197.67 -0.000767483
197.68 -0.00133365
197.69 -0.00194175
197.7 -0.002572
197.71 -0.00320318
197.72 -0.00381323
197.73 -0.00438
197.74 -0.00488156
197.75 -0.00528873
197.76 -0.00559019
197.77 -0.00577138
197.78 -0.00582125
197.79 -0.00573271
197.8 -0.00550299
197.81 -0.00513383
197.82 -0.00463156
197.83 -0.00400236
197.84 -0.00326309
197.85 -0.00243971
197.86 -0.00155523
197.87 -0.00063521
197.88 0.000293101
197.89 0.00120157
197.9 0.00206208
197.91 0.00284749
197.92 0.00352221
197.93 0.00406946
197.94 0.00447229
197.95 0.00471695
197.96 0.00479456
197.97 0.00470148
197.98 0.00443948
197.99 0.00401577
198 0.00343913
198.01 0.00272453
198.02 0.00190451
198.03 0.00100541
198.04 5.62742e-05
198.05 -0.000912032
198.06 -0.00186787
198.07 -0.00277982
198.08 -0.00361777
198.09 -0.00434524
198.1 -0.00493982
198.11 -0.00538486
198.12 -0.00566589
198.13 -0.00577392
198.14 -0.00570572
198.15 -0.00546403
198.16 -0.00505748
198.17 -0.00449865
198.18 -0.0038005
198.19 -0.00300015
198.2 -0.00212619
198.21 -0.00120986
198.22 -0.000283984
198.23 0.000618066
198.24 0.00146352
198.25 0.00222129
198.26 0.00285561
198.27 0.00334056
198.28 0.00366229
198.29 0.00380728
198.3 0.00376789
198.31 0.00354263
198.32 0.00313621
198.33 0.00255945
198.34 0.00182891
198.35 0.000956754
198.36 -1.61286e-05
198.37 -0.00105861
198.38 -0.00213747
198.39 -0.00321811
198.4 -0.00426566
198.41 -0.00524613
198.42 -0.00612746
198.43 -0.00687491
198.44 -0.00745762
198.45 -0.00786402
198.46 -0.0080804
198.47 -0.00809895
198.48 -0.00791796
198.49 -0.00754186
198.5 -0.00698101
198.51 -0.00625133
198.52 -0.00536445
198.53 -0.00435719
198.54 -0.00326155
198.55 -0.0021091
198.56 -0.000932605
198.57 0.000234995
198.58 0.00136165
198.59 0.0024172
198.6 0.00337163
198.61 0.00419265
198.62 0.00486939
198.63 0.00538838
198.64 0.00574131
198.65 0.00592521
198.66 0.00594236
198.67 0.00580004
198.68 0.00551015
198.69 0.0050819
198.7 0.00454077
198.71 0.0039136
198.72 0.00322439
198.73 0.0024978
198.74 0.00175831
198.75 0.00102934
198.76 0.000332544
198.77 -0.000312558
198.78 -0.000882996
198.79 -0.00137186
198.8 -0.00177123
198.81 -0.00207706
198.82 -0.00228916
198.83 -0.00241098
198.84 -0.00244921
198.85 -0.0024134
198.86 -0.00231316
198.87 -0.00216356
198.88 -0.00198206
198.89 -0.00178319
198.9 -0.00158088
198.91 -0.00138781
198.92 -0.00121487
198.93 -0.00107072
198.94 -0.000961406
198.95 -0.000893422
198.96 -0.000863817
198.97 -0.000869033
198.98 -0.000903301
198.99 -0.000958596
199 -0.00102509
199.01 -0.00109166
199.02 -0.00114654
199.03 -0.00117685
199.04 -0.00116898
199.05 -0.00111501
199.06 -0.00100732
199.07 -0.000840809
199.08 -0.000613196
199.09 -0.000325346
199.1 1.86101e-05
199.11 0.000411268
199.12 0.000843785
199.13 0.00129936
199.14 0.00176079
199.15 0.0022101
199.16 0.00262831
199.17 0.00299609
199.18 0.00329463
199.19 0.00350634
199.2 0.00361409
199.21 0.00359643
199.22 0.00345336
199.23 0.00318047
199.24 0.00277781
199.25 0.00225008
199.26 0.00160666
199.27 0.000861502
199.28 3.28355e-05
199.29 -0.000859189
199.3 -0.00178517
199.31 -0.00271463
199.32 -0.00361821
199.33 -0.00446621
199.34 -0.00522963
199.35 -0.00588114
199.36 -0.00639609
199.37 -0.00675343
199.38 -0.00691931
199.39 -0.00689809
199.4 -0.00668565
199.41 -0.00628358
199.42 -0.00569966
199.43 -0.00494768
199.44 -0.00404716
199.45 -0.00302285
199.46 -0.00190174
199.47 -0.000719928
199.48 0.000481492
199.49 0.00166533
199.5 0.0027944
199.51 0.00383268
199.52 0.00474655
199.53 0.00550589
199.54 0.00608511
199.55 0.00644746
199.56 0.00659062
199.57 0.0065124
199.58 0.00621412
199.59 0.00570415
199.6 0.00499768
199.61 0.0041163
199.62 0.00308729
199.63 0.00194117
199.64 0.000714307
199.65 -0.000546089
199.66 -0.00179967
199.67 -0.00300628
199.68 -0.00412726
199.69 -0.00512668
199.7 -0.00597257
199.71 -0.00663788
199.72 -0.0070881
199.73 -0.0073138
199.74 -0.00731584
199.75 -0.0070957
199.76 -0.00666208
199.77 -0.00603062
199.78 -0.00522336
199.79 -0.004268
199.8 -0.00319648
199.81 -0.0020422
199.82 -0.00085373
199.83 0.000329293
199.84 0.00146776
199.85 0.00252441
199.86 0.00346504
199.87 0.00425964
199.88 0.00488339
199.89 0.0053081
199.9 0.00552034
199.91 0.00552578
199.92 0.00532786
199.93 0.00493692
199.94 0.0043698
199.95 0.00364922
199.96 0.00280299
199.97 0.00186298
199.98 0.000862158
199.99 -0.000155052
200 -0.00115119
