0 0
0.01 0.00219302
0.02 0.00433847
0.03 0.00639365
0.04 0.00831784
0.05 0.0100732
0.06 0.0116255
0.07 0.012945
0.08 0.0140068
0.09 0.0147799
0.1 0.0152455
0.11 0.0154129
0.12 0.0152823
0.13 0.0148599
0.14 0.0141576
0.15 0.013193
0.16 0.0119885
0.17 0.0105709
0.18 0.00895903
0.19 0.00720136
0.2 0.00533661
0.21 0.0034017
0.22 0.00143374
0.23 -0.000530858
0.24 -0.0024571
0.25 -0.00431223
0.26 -0.00606324
0.27 -0.00767522
0.28 -0.00913402
0.29 -0.0104224
0.3 -0.0115275
0.31 -0.012441
0.32 -0.0131592
0.33 -0.0136823
0.34 -0.0140146
0.35 -0.0141528
0.36 -0.0141148
0.37 -0.0139196
0.38 -0.0135815
0.39 -0.013116
0.4 -0.012538
0.41 -0.011862
0.42 -0.0111008
0.43 -0.0102647
0.44 -0.00935731
0.45 -0.00838919
0.46 -0.00736132
0.47 -0.00627109
0.48 -0.00511238
0.49 -0.00387566
0.5 -0.00254836
0.51 -0.00111527
0.52 0.00044761
0.53 0.00216108
0.54 0.00403815
0.55 0.00609687
0.56 0.0083535
0.57 0.0108214
0.58 0.0135102
0.59 0.0164243
0.6 0.0195623
0.61 0.0229334
0.62 0.0265018
0.63 0.0302398
0.64 0.0341124
0.65 0.0380758
0.66 0.0420771
0.67 0.0460549
0.68 0.0499393
0.69 0.0536452
0.7 0.0570707
0.71 0.0601376
0.72 0.062753
0.73 0.0648225
0.74 0.0662517
0.75 0.066949
0.76 0.0668268
0.77 0.0658043
0.78 0.0637351
0.79 0.0606008
0.8 0.0563787
0.81 0.0510387
0.82 0.0445677
0.83 0.0369706
0.84 0.0282714
0.85 0.0185143
0.86 0.0077488
0.87 -0.00398472
0.88 -0.0165002
0.89 -0.0296692
0.9 -0.0433458
0.91 -0.057368
0.92 -0.0715604
0.93 -0.0857361
0.94 -0.0997
0.95 -0.113217
0.96 -0.126067
0.97 -0.138067
0.98 -0.149024
0.99 -0.158753
1 -0.167084
1.01 -0.173862
1.02 -0.178954
1.03 -0.182248
1.04 -0.183481
1.05 -0.182772
1.06 -0.180103
1.07 -0.175488
1.08 -0.168973
1.09 -0.160637
1.1 -0.15059
1.11 -0.138974
1.12 -0.125914
1.13 -0.111618
1.14 -0.0963891
1.15 -0.0804756
1.16 -0.0641412
1.17 -0.0476614
1.18 -0.031319
1.19 -0.0153986
1.2 -0.000182335
1.21 0.0139565
1.22 0.0267991
1.23 0.0381221
1.24 0.0477112
1.25 0.0553797
1.26 0.060973
1.27 0.0643709
1.28 0.0654911
1.29 0.0642326
1.3 0.0604938
1.31 0.0544853
1.32 0.0462966
1.33 0.0360568
1.34 0.0239322
1.35 0.0101239
1.36 -0.00513567
1.37 -0.0215873
1.38 -0.0389879
1.39 -0.0569728
1.4 -0.0752035
1.41 -0.093364
1.42 -0.111141
1.43 -0.128228
1.44 -0.144334
1.45 -0.159189
1.46 -0.172532
1.47 -0.184
1.48 -0.193555
1.49 -0.201068
1.5 -0.206453
1.51 -0.209669
1.52 -0.210723
1.53 -0.209667
1.54 -0.206601
1.55 -0.201587
1.56 -0.194844
1.57 -0.186689
1.58 -0.177388
1.59 -0.167231
1.6 -0.156534
1.61 -0.145623
1.62 -0.134834
1.63 -0.124503
1.64 -0.115055
1.65 -0.106762
1.66 -0.0999015
1.67 -0.0947264
1.68 -0.09145
1.69 -0.0902417
1.7 -0.091221
1.71 -0.0944535
1.72 -0.10002
1.73 -0.107917
1.74 -0.117878
1.75 -0.129713
1.76 -0.143172
1.77 -0.15795
1.78 -0.173686
1.79 -0.189972
1.8 -0.206359
1.81 -0.222295
1.82 -0.237233
1.83 -0.250649
1.84 -0.262003
1.85 -0.27076
1.86 -0.276398
1.87 -0.278419
1.88 -0.276361
1.89 -0.269715
1.9 -0.257795
1.91 -0.240663
1.92 -0.2181
1.93 -0.189966
1.94 -0.156203
1.95 -0.116841
1.96 -0.0719979
1.97 -0.021881
1.98 0.033473
1.99 0.0935238
2 0.157599
2.01 0.225133
2.02 0.295492
2.03 0.367978
2.04 0.441843
2.05 0.516295
2.06 0.59051
2.07 0.663468
2.08 0.734359
2.09 0.802346
2.1 0.866617
2.11 0.926394
2.12 0.980949
2.13 1.02961
2.14 1.07178
2.15 1.10662
2.16 1.13359
2.17 1.15273
2.18 1.16384
2.19 1.16681
2.2 1.16165
2.21 1.14846
2.22 1.12746
2.23 1.09896
2.24 1.06285
2.25 1.02016
2.26 0.971608
2.27 0.917857
2.28 0.859642
2.29 0.797745
2.3 0.732982
2.31 0.666189
2.32 0.598204
2.33 0.529943
2.34 0.462293
2.35 0.396034
2.36 0.331896
2.37 0.270553
2.38 0.21261
2.39 0.158595
2.4 0.108952
2.41 0.0643631
2.42 0.0249306
2.43 -0.00934299
2.44 -0.0384134
2.45 -0.0623312
2.46 -0.0812388
2.47 -0.0953652
2.48 -0.10502
2.49 -0.110547
2.5 -0.112174
2.51 -0.110748
2.52 -0.106817
2.53 -0.100956
2.54 -0.0937539
2.55 -0.085804
2.56 -0.0776885
2.57 -0.0699688
2.58 -0.0632447
2.59 -0.0580514
2.6 -0.0547634
2.61 -0.0537363
2.62 -0.0552564
2.63 -0.0595351
2.64 -0.0667061
2.65 -0.0768228
2.66 -0.0898587
2.67 -0.105943
2.68 -0.124632
2.69 -0.145644
2.7 -0.168649
2.71 -0.193261
2.72 -0.219052
2.73 -0.245554
2.74 -0.272277
2.75 -0.298688
2.76 -0.3242
2.77 -0.34834
2.78 -0.370639
2.79 -0.390664
2.8 -0.408024
2.81 -0.422384
2.82 -0.433471
2.83 -0.441083
2.84 -0.44482
2.85 -0.44483
2.86 -0.441238
2.87 -0.434175
2.88 -0.423851
2.89 -0.41055
2.9 -0.394628
2.91 -0.376505
2.92 -0.356633
2.93 -0.335524
2.94 -0.313865
2.95 -0.292238
2.96 -0.271233
2.97 -0.251432
2.98 -0.233402
2.99 -0.217675
3 -0.204743
3.01 -0.195246
3.02 -0.189512
3.03 -0.187689
3.04 -0.189958
3.05 -0.1964
3.06 -0.207
3.07 -0.221638
3.08 -0.240088
3.09 -0.262031
3.1 -0.287254
3.11 -0.314897
3.12 -0.344321
3.13 -0.374813
3.14 -0.405591
3.15 -0.435816
3.16 -0.46461
3.17 -0.491067
3.18 -0.514092
3.19 -0.532623
3.2 -0.545956
3.21 -0.553253
3.22 -0.553737
3.23 -0.546706
3.24 -0.531548
3.25 -0.507753
3.26 -0.474927
3.27 -0.432028
3.28 -0.379578
3.29 -0.317733
3.3 -0.246677
3.31 -0.166741
3.32 -0.0783993
3.33 0.0177317
3.34 0.120901
3.35 0.230369
3.36 0.345227
3.37 0.463947
3.38 0.585326
3.39 0.708089
3.4 0.830912
3.41 0.95244
3.42 1.0713
3.43 1.18613
3.44 1.29516
3.45 1.39715
3.46 1.49108
3.47 1.5758
3.48 1.65032
3.49 1.71375
3.5 1.76531
3.51 1.80439
3.52 1.83039
3.53 1.84203
3.54 1.84029
3.55 1.82526
3.56 1.79717
3.57 1.7564
3.58 1.70352
3.59 1.63922
3.6 1.56434
3.61 1.4794
3.62 1.3857
3.63 1.28481
3.64 1.178
3.65 1.06655
3.66 0.95182
3.67 0.835141
3.68 0.717857
3.69 0.601286
3.7 0.486989
3.71 0.376093
3.72 0.269703
3.73 0.168836
3.74 0.0743988
3.75 -0.0128191
3.76 -0.0921568
3.77 -0.163088
3.78 -0.224906
3.79 -0.277134
3.8 -0.320222
3.81 -0.354232
3.82 -0.37936
3.83 -0.395923
3.84 -0.404354
3.85 -0.405189
3.86 -0.399057
3.87 -0.386256
3.88 -0.367984
3.89 -0.345193
3.9 -0.318739
3.91 -0.289494
3.92 -0.258324
3.93 -0.226081
3.94 -0.193586
3.95 -0.161638
3.96 -0.131096
3.97 -0.102544
3.98 -0.0765368
3.99 -0.0535412
4 -0.0339336
4.01 -0.0179948
4.02 -0.00590885
4.03 0.00223722
4.04 0.00622499
4.05 0.00627051
4.06 0.00271742
4.07 -0.00415264
4.08 -0.0139892
4.09 -0.0263823
4.1 -0.0408731
4.11 -0.0569646
4.12 -0.0741349
4.13 -0.0918395
4.14 -0.109448
4.15 -0.126432
4.16 -0.142284
4.17 -0.15653
4.18 -0.168738
4.19 -0.178525
4.2 -0.185566
4.21 -0.189459
4.22 -0.189971
4.23 -0.18715
4.24 -0.180961
4.25 -0.171444
4.26 -0.158706
4.27 -0.142923
4.28 -0.124333
4.29 -0.103232
4.3 -0.0798204
4.31 -0.0546822
4.32 -0.0282734
4.33 -0.00104817
4.34 0.0265251
4.35 0.0539737
4.36 0.0808296
4.37 0.106639
4.38 0.13092
4.39 0.153158
4.4 0.173107
4.41 0.190466
4.42 0.204986
4.43 0.216477
4.44 0.224809
4.45 0.229916
4.46 0.231795
4.47 0.230302
4.48 0.22571
4.49 0.218299
4.5 0.20832
4.51 0.196072
4.52 0.181896
4.53 0.16617
4.54 0.149303
4.55 0.131718
4.56 0.113884
4.57 0.0963006
4.58 0.0794063
4.59 0.0636271
4.6 0.049367
4.61 0.0370009
4.62 0.0268682
4.63 0.0192665
4.64 0.0146018
4.65 0.0130664
4.66 0.0146729
4.67 0.0194969
4.68 0.0275568
4.69 0.0388131
4.7 0.0531702
4.71 0.0704781
4.72 0.0905358
4.73 0.113296
4.74 0.138219
4.75 0.16496
4.76 0.193155
4.77 0.222414
4.78 0.252334
4.79 0.282501
4.8 0.312499
4.81 0.341879
4.82 0.370172
4.83 0.397036
4.84 0.422119
4.85 0.445094
4.86 0.465672
4.87 0.4836
4.88 0.498665
4.89 0.5107
4.9 0.519335
4.91 0.52467
4.92 0.52674
4.93 0.525564
4.94 0.521204
4.95 0.513761
4.96 0.503369
4.97 0.490197
4.98 0.474394
4.99 0.456078
5 0.435682
5.01 0.413461
5.02 0.389679
5.03 0.364603
5.04 0.3385
5.05 0.31163
5.06 0.284243
5.07 0.256575
5.08 0.228878
5.09 0.201358
5.1 0.174192
5.11 0.147534
5.12 0.121514
5.13 0.0962373
5.14 0.0717873
5.15 0.0482279
5.16 0.0256768
5.17 0.00406731
5.18 -0.0166044
5.19 -0.0363571
5.2 -0.055222
5.21 -0.0732398
5.22 -0.0904577
5.23 -0.106927
5.24 -0.122671
5.25 -0.137743
5.26 -0.152223
5.27 -0.166149
5.28 -0.179549
5.29 -0.192445
5.3 -0.204843
5.31 -0.216741
5.32 -0.228122
5.33 -0.238909
5.34 -0.249098
5.35 -0.258642
5.36 -0.267481
5.37 -0.275545
5.38 -0.282761
5.39 -0.289054
5.4 -0.294344
5.41 -0.298524
5.42 -0.301472
5.43 -0.303197
5.44 -0.303646
5.45 -0.302777
5.46 -0.300564
5.47 -0.296995
5.48 -0.292074
5.49 -0.285826
5.5 -0.27821
5.51 -0.26935
5.52 -0.259366
5.53 -0.248361
5.54 -0.236458
5.55 -0.223795
5.56 -0.210523
5.57 -0.196808
5.58 -0.182825
5.59 -0.168771
5.6 -0.154853
5.61 -0.141263
5.62 -0.128188
5.63 -0.115813
5.64 -0.104313
5.65 -0.0938533
5.66 -0.0845866
5.67 -0.0767259
5.68 -0.0703864
5.69 -0.0656054
5.7 -0.0624541
5.71 -0.0609806
5.72 -0.061209
5.73 -0.0631395
5.74 -0.0667477
5.75 -0.0719857
5.76 -0.0789178
5.77 -0.0873003
5.78 -0.0970127
5.79 -0.10792
5.8 -0.119873
5.81 -0.132708
5.82 -0.146253
5.83 -0.160326
5.84 -0.174748
5.85 -0.189314
5.86 -0.203819
5.87 -0.218084
5.88 -0.231936
5.89 -0.245211
5.9 -0.25776
5.91 -0.269443
5.92 -0.28014
5.93 -0.289656
5.94 -0.29796
5.95 -0.305011
5.96 -0.310761
5.97 -0.315185
5.98 -0.318275
5.99 -0.32004
6 -0.320507
6.01 -0.319692
6.02 -0.317595
6.03 -0.31438
6.04 -0.310126
6.05 -0.304923
6.06 -0.298863
6.07 -0.292046
6.08 -0.284573
6.09 -0.276545
6.1 -0.268038
6.11 -0.259171
6.12 -0.25005
6.13 -0.240757
6.14 -0.23137
6.15 -0.221954
6.16 -0.212571
6.17 -0.203269
6.18 -0.194091
6.19 -0.185083
6.2 -0.176255
6.21 -0.167619
6.22 -0.159183
6.23 -0.150944
6.24 -0.142897
6.25 -0.135032
6.26 -0.127334
6.27 -0.119795
6.28 -0.112396
6.29 -0.105114
6.3 -0.0979336
6.31 -0.090843
6.32 -0.0838333
6.33 -0.0768992
6.34 -0.0700399
6.35 -0.0632593
6.36 -0.0565749
6.37 -0.0499957
6.38 -0.0435404
6.39 -0.0372326
6.4 -0.0311001
6.41 -0.0251734
6.42 -0.0194857
6.43 -0.0140716
6.44 -0.00897673
6.45 -0.00425202
6.46 8.95474e-05
6.47 0.00401713
6.48 0.00750326
6.49 0.0105247
6.5 0.013063
6.51 0.0151056
6.52 0.0166458
6.53 0.0176489
6.54 0.0181456
6.55 0.0181632
6.56 0.0177233
6.57 0.0168536
6.58 0.0155878
6.59 0.0139647
6.6 0.0120276
6.61 0.00982059
6.62 0.00738439
6.63 0.00479141
6.64 0.00209357
6.65 -0.000658006
6.66 -0.00341412
6.67 -0.00612853
6.68 -0.00875898
6.69 -0.0112681
6.7 -0.0136148
6.71 -0.0157738
6.72 -0.0177352
6.73 -0.0194903
6.74 -0.021038
6.75 -0.0223852
6.76 -0.0235464
6.77 -0.0245433
6.78 -0.0254046
6.79 -0.0261596
6.8 -0.0268618
6.81 -0.0275571
6.82 -0.0282945
6.83 -0.0291247
6.84 -0.0300997
6.85 -0.031271
6.86 -0.0326883
6.87 -0.0344116
6.88 -0.0364949
6.89 -0.0389577
6.9 -0.0418306
6.91 -0.0451367
6.92 -0.0488915
6.93 -0.0531018
6.94 -0.0577661
6.95 -0.0628739
6.96 -0.0684364
6.97 -0.0743958
6.98 -0.0807068
6.99 -0.0873236
7 -0.0941937
7.01 -0.101259
7.02 -0.108456
7.03 -0.115719
7.04 -0.122975
7.05 -0.130145
7.06 -0.13716
7.07 -0.143951
7.08 -0.150455
7.09 -0.156611
7.1 -0.162366
7.11 -0.167673
7.12 -0.17249
7.13 -0.176754
7.14 -0.180456
7.15 -0.183602
7.16 -0.186192
7.17 -0.188233
7.18 -0.189743
7.19 -0.190749
7.2 -0.191287
7.21 -0.191396
7.22 -0.191101
7.23 -0.190495
7.24 -0.189639
7.25 -0.188595
7.26 -0.187428
7.27 -0.186204
7.28 -0.184985
7.29 -0.183833
7.3 -0.182814
7.31 -0.181986
7.32 -0.181387
7.33 -0.181054
7.34 -0.181017
7.35 -0.181296
7.36 -0.181903
7.37 -0.18284
7.38 -0.184099
7.39 -0.18569
7.4 -0.187559
7.41 -0.189669
7.42 -0.191977
7.43 -0.194437
7.44 -0.196993
7.45 -0.199588
7.46 -0.202162
7.47 -0.204647
7.48 -0.20697
7.49 -0.209077
7.5 -0.210909
7.51 -0.212414
7.52 -0.213544
7.53 -0.214256
7.54 -0.214518
7.55 -0.214303
7.56 -0.213559
7.57 -0.212301
7.58 -0.210546
7.59 -0.208307
7.6 -0.205608
7.61 -0.202479
7.62 -0.198962
7.63 -0.195106
7.64 -0.19096
7.65 -0.18658
7.66 -0.182052
7.67 -0.177448
7.68 -0.172837
7.69 -0.168291
7.7 -0.163882
7.71 -0.159677
7.72 -0.155741
7.73 -0.152155
7.74 -0.148974
7.75 -0.146228
7.76 -0.143956
7.77 -0.142186
7.78 -0.140937
7.79 -0.140218
7.8 -0.140029
7.81 -0.140362
7.82 -0.141242
7.83 -0.14259
7.84 -0.144369
7.85 -0.146533
7.86 -0.149032
7.87 -0.151809
7.88 -0.154802
7.89 -0.157949
7.9 -0.161184
7.91 -0.164435
7.92 -0.167633
7.93 -0.170715
7.94 -0.173625
7.95 -0.176308
7.96 -0.178716
7.97 -0.180808
7.98 -0.182551
7.99 -0.183886
8 -0.184819
8.01 -0.185347
8.02 -0.185472
8.03 -0.1852
8.04 -0.18455
8.05 -0.183543
8.06 -0.182211
8.07 -0.180584
8.08 -0.178694
8.09 -0.176609
8.1 -0.174377
8.11 -0.172046
8.12 -0.169668
8.13 -0.167291
8.14 -0.164963
8.15 -0.162728
8.16 -0.160639
8.17 -0.15873
8.18 -0.157027
8.19 -0.155553
8.2 -0.154324
8.21 -0.153351
8.22 -0.152636
8.23 -0.152176
8.24 -0.15196
8.25 -0.151987
8.26 -0.152212
8.27 -0.152604
8.28 -0.153128
8.29 -0.153746
8.3 -0.154418
8.31 -0.155099
8.32 -0.155747
8.33 -0.156311
8.34 -0.156743
8.35 -0.157008
8.36 -0.157068
8.37 -0.15689
8.38 -0.156446
8.39 -0.155713
8.4 -0.154674
8.41 -0.153316
8.42 -0.151607
8.43 -0.149575
8.44 -0.147232
8.45 -0.144592
8.46 -0.141676
8.47 -0.13851
8.48 -0.135125
8.49 -0.131553
8.5 -0.127829
8.51 -0.123993
8.52 -0.120096
8.53 -0.116178
8.54 -0.11228
8.55 -0.108439
8.56 -0.104693
8.57 -0.101074
8.58 -0.0976114
8.59 -0.0943444
8.6 -0.0912852
8.61 -0.0884424
8.62 -0.0858236
8.63 -0.0834304
8.64 -0.081259
8.65 -0.0793
8.66 -0.0775387
8.67 -0.0759584
8.68 -0.0745423
8.69 -0.0732488
8.7 -0.0720473
8.71 -0.0709056
8.72 -0.0697902
8.73 -0.0686674
8.74 -0.0675042
8.75 -0.0662693
8.76 -0.0649262
8.77 -0.063448
8.78 -0.0618174
8.79 -0.0600176
8.8 -0.0580367
8.81 -0.055868
8.82 -0.0535107
8.83 -0.0509694
8.84 -0.0482542
8.85 -0.0453683
8.86 -0.0423498
8.87 -0.0392257
8.88 -0.0360268
8.89 -0.0327877
8.9 -0.0295456
8.91 -0.0263397
8.92 -0.0232102
8.93 -0.0202042
8.94 -0.0173686
8.95 -0.0147346
8.96 -0.0123375
8.97 -0.0102093
8.98 -0.00837758
8.99 -0.00686544
9 -0.00569051
9.01 -0.00486468
9.02 -0.00442204
9.03 -0.00433808
9.04 -0.00459929
9.05 -0.00519129
9.06 -0.00609373
9.07 -0.00728077
9.08 -0.00872151
9.09 -0.0103806
9.1 -0.0122225
9.11 -0.0142064
9.12 -0.016276
9.13 -0.0183862
9.14 -0.0204918
9.15 -0.022549
9.16 -0.0245155
9.17 -0.0263523
9.18 -0.0280238
9.19 -0.0294848
9.2 -0.030714
9.21 -0.0316987
9.22 -0.0324267
9.23 -0.032892
9.24 -0.0330956
9.25 -0.033045
9.26 -0.0327544
9.27 -0.0322426
9.28 -0.0315245
9.29 -0.0306513
9.3 -0.0296605
9.31 -0.0285933
9.32 -0.0274935
9.33 -0.026407
9.34 -0.0253807
9.35 -0.0244611
9.36 -0.0237035
9.37 -0.0231561
9.38 -0.0228512
9.39 -0.0228239
9.4 -0.0231046
9.41 -0.0237177
9.42 -0.0246814
9.43 -0.026007
9.44 -0.0276986
9.45 -0.029784
9.46 -0.0322211
9.47 -0.0349878
9.48 -0.0380577
9.49 -0.0413976
9.5 -0.0449685
9.51 -0.0487263
9.52 -0.0526222
9.53 -0.0566047
9.54 -0.0606132
9.55 -0.064586
9.56 -0.0684664
9.57 -0.0721981
9.58 -0.0757269
9.59 -0.0790017
9.6 -0.0819751
9.61 -0.0846043
9.62 -0.0868227
9.63 -0.0886166
9.64 -0.0899726
9.65 -0.0908758
9.66 -0.0913195
9.67 -0.0913044
9.68 -0.0908391
9.69 -0.0899397
9.7 -0.0886231
9.71 -0.0869005
9.72 -0.084841
9.73 -0.0824875
9.74 -0.0798872
9.75 -0.0770909
9.76 -0.0741517
9.77 -0.0711244
9.78 -0.0680638
9.79 -0.0650289
9.8 -0.0620776
9.81 -0.0592584
9.82 -0.0566166
9.83 -0.054193
9.84 -0.052023
9.85 -0.0501361
9.86 -0.0485554
9.87 -0.0472976
9.88 -0.0464024
9.89 -0.04584
9.9 -0.045604
9.91 -0.0456813
9.92 -0.0460524
9.93 -0.0466919
9.94 -0.0475695
9.95 -0.0486503
9.96 -0.0499006
9.97 -0.0512751
9.98 -0.0527219
9.99 -0.0541968
10 -0.0556557
10.01 -0.057056
10.02 -0.0583568
10.03 -0.0595205
10.04 -0.0605128
10.05 -0.0612857
10.06 -0.0618264
10.07 -0.0621195
10.08 -0.0621525
10.09 -0.0619191
10.1 -0.0614188
10.11 -0.0606571
10.12 -0.0596452
10.13 -0.0583943
10.14 -0.0569195
10.15 -0.0552638
10.16 -0.0534573
10.17 -0.0515333
10.18 -0.049527
10.19 -0.0474749
10.2 -0.0454137
10.21 -0.0433797
10.22 -0.0414143
10.23 -0.0395513
10.24 -0.0378181
10.25 -0.0362402
10.26 -0.034839
10.27 -0.0336313
10.28 -0.0326287
10.29 -0.0318374
10.3 -0.0312605
10.31 -0.030908
10.32 -0.0307508
10.33 -0.0307731
10.34 -0.0309541
10.35 -0.0312692
10.36 -0.0316902
10.37 -0.0321859
10.38 -0.0327231
10.39 -0.0332655
10.4 -0.0337733
10.41 -0.0342115
10.42 -0.0345462
10.43 -0.0347458
10.44 -0.0347812
10.45 -0.0346266
10.46 -0.0342602
10.47 -0.0336647
10.48 -0.0328055
10.49 -0.0316958
10.5 -0.0303361
10.51 -0.0287313
10.52 -0.0268914
10.53 -0.0248316
10.54 -0.0225718
10.55 -0.0201364
10.56 -0.0175497
10.57 -0.0148442
10.58 -0.0120632
10.59 -0.0092428
10.6 -0.00642002
10.61 -0.00363195
10.62 -0.00091486
10.63 0.00169652
10.64 0.0041698
10.65 0.00646144
10.66 0.00855267
10.67 0.0104269
10.68 0.0120688
10.69 0.0134682
10.7 0.0146207
10.71 0.0155272
10.72 0.0161945
10.73 0.0166308
10.74 0.0168439
10.75 0.0168745
10.76 0.0167503
10.77 0.016503
10.78 0.0161672
10.79 0.01578
10.8 0.01538
10.81 0.0150066
10.82 0.0147053
10.83 0.0145174
10.84 0.0144765
10.85 0.0146157
10.86 0.0149651
10.87 0.0155504
10.88 0.0163925
10.89 0.0175073
10.9 0.0189057
10.91 0.0206176
10.92 0.0226137
10.93 0.024885
10.94 0.0274166
10.95 0.0301879
10.96 0.0331733
10.97 0.0363421
10.98 0.0396598
10.99 0.043091
11 0.04659
11.01 0.0501082
11.02 0.0536014
11.03 0.0570255
11.04 0.0603372
11.05 0.063495
11.06 0.0664597
11.07 0.0691956
11.08 0.0716473
11.09 0.073804
11.1 0.0756483
11.11 0.0771651
11.12 0.0783453
11.13 0.079186
11.14 0.0796901
11.15 0.079867
11.16 0.0797237
11.17 0.0792719
11.18 0.0785592
11.19 0.0776167
11.2 0.0764793
11.21 0.0751848
11.22 0.0737732
11.23 0.0722859
11.24 0.070765
11.25 0.0692555
11.26 0.0678016
11.27 0.0664409
11.28 0.0652085
11.29 0.0641357
11.3 0.0632496
11.31 0.0625724
11.32 0.0621214
11.33 0.0619109
11.34 0.0619643
11.35 0.0622604
11.36 0.0627923
11.37 0.0635474
11.38 0.0645079
11.39 0.0656514
11.4 0.0669511
11.41 0.0683764
11.42 0.0698965
11.43 0.0714705
11.44 0.0730568
11.45 0.0746174
11.46 0.0761149
11.47 0.0775125
11.48 0.0787758
11.49 0.0798729
11.5 0.0807751
11.51 0.0814361
11.52 0.0818538
11.53 0.082015
11.54 0.0819108
11.55 0.0815378
11.56 0.0808982
11.57 0.0799993
11.58 0.0788539
11.59 0.0774726
11.6 0.0758759
11.61 0.0741045
11.62 0.072189
11.63 0.0701629
11.64 0.0680616
11.65 0.0659217
11.66 0.0637803
11.67 0.0616742
11.68 0.0596469
11.69 0.0577313
11.7 0.0559565
11.71 0.0543496
11.72 0.0529338
11.73 0.0517277
11.74 0.0507453
11.75 0.0499954
11.76 0.0494859
11.77 0.0492274
11.78 0.0491936
11.79 0.0493711
11.8 0.0497415
11.81 0.0502824
11.82 0.050967
11.83 0.0517655
11.84 0.0526455
11.85 0.0535728
11.86 0.0545065
11.87 0.0554087
11.88 0.0562437
11.89 0.0569772
11.9 0.0575766
11.91 0.0580123
11.92 0.0582581
11.93 0.0582905
11.94 0.0580703
11.95 0.0576053
11.96 0.0568887
11.97 0.0559193
11.98 0.0547012
11.99 0.0532438
12 0.0515622
12.01 0.0496759
12.02 0.0476029
12.03 0.0453747
12.04 0.0430334
12.05 0.0406147
12.06 0.0381566
12.07 0.0356987
12.08 0.033281
12.09 0.0309438
12.1 0.0287261
12.11 0.026682
12.12 0.0248383
12.13 0.0232251
12.14 0.0218705
12.15 0.0207986
12.16 0.0200288
12.17 0.0195757
12.18 0.0194488
12.19 0.0196616
12.2 0.0202251
12.21 0.0211101
12.22 0.0223042
12.23 0.0237906
12.24 0.0255481
12.25 0.0275519
12.26 0.029774
12.27 0.0321834
12.28 0.0347556
12.29 0.0374462
12.3 0.0402164
12.31 0.0430312
12.32 0.0458567
12.33 0.0486603
12.34 0.0514113
12.35 0.0540816
12.36 0.0566444
12.37 0.0590671
12.38 0.0613413
12.39 0.0634537
12.4 0.0653948
12.41 0.0671592
12.42 0.0687455
12.43 0.0701558
12.44 0.0713961
12.45 0.0724678
12.46 0.0733859
12.47 0.074172
12.48 0.0748428
12.49 0.075416
12.5 0.0759102
12.51 0.0763441
12.52 0.0767361
12.53 0.0771036
12.54 0.0774635
12.55 0.0778315
12.56 0.0782194
12.57 0.0786361
12.58 0.079088
12.59 0.0795782
12.6 0.0801071
12.61 0.0806717
12.62 0.0812671
12.63 0.0818838
12.64 0.0825084
12.65 0.083127
12.66 0.083724
12.67 0.0842825
12.68 0.0847844
12.69 0.0852115
12.7 0.0855456
12.71 0.0857595
12.72 0.0858418
12.73 0.0857803
12.74 0.0855629
12.75 0.0851802
12.76 0.0846257
12.77 0.083896
12.78 0.0829915
12.79 0.0819124
12.8 0.0806587
12.81 0.0792546
12.82 0.0777156
12.83 0.07606
12.84 0.0743092
12.85 0.0724871
12.86 0.0706197
12.87 0.0687347
12.88 0.0668634
12.89 0.0650379
12.9 0.063287
12.91 0.0616389
12.92 0.0601203
12.93 0.0587562
12.94 0.0575688
12.95 0.0565775
12.96 0.0557991
12.97 0.0552655
12.98 0.0549643
12.99 0.0548979
13 0.0550644
13.01 0.0554572
13.02 0.0560653
13.03 0.0568735
13.04 0.0578626
13.05 0.0590154
13.06 0.060303
13.07 0.061688
13.08 0.063139
13.09 0.0646229
13.1 0.0661061
13.11 0.0675546
13.12 0.0689351
13.13 0.0702153
13.14 0.0713515
13.15 0.0723234
13.16 0.0731081
13.17 0.0736851
13.18 0.074038
13.19 0.0741544
13.2 0.0740269
13.21 0.0736526
13.22 0.0730264
13.23 0.0721477
13.24 0.0710448
13.25 0.0697343
13.26 0.0682367
13.27 0.0665761
13.28 0.0647794
13.29 0.0628762
13.3 0.0608977
13.31 0.0588757
13.32 0.0568483
13.33 0.0548492
13.34 0.0529097
13.35 0.0510596
13.36 0.0493262
13.37 0.0477341
13.38 0.0463041
13.39 0.0450561
13.4 0.0440168
13.41 0.0431788
13.42 0.0425448
13.43 0.0421125
13.44 0.0418752
13.45 0.0418216
13.46 0.0419359
13.47 0.0421986
13.48 0.0425917
13.49 0.0430841
13.5 0.0436418
13.51 0.044234
13.52 0.0448289
13.53 0.0453947
13.54 0.0458998
13.55 0.0463137
13.56 0.0466079
13.57 0.0467404
13.58 0.0466999
13.59 0.0464682
13.6 0.0460307
13.61 0.0453773
13.62 0.0445027
13.63 0.0434066
13.64 0.0420936
13.65 0.040566
13.66 0.0388367
13.67 0.0369372
13.68 0.0348916
13.69 0.0327275
13.7 0.0304755
13.71 0.0281691
13.72 0.0258431
13.73 0.0235337
13.74 0.0212847
13.75 0.0191324
13.76 0.0171107
13.77 0.0152525
13.78 0.013588
13.79 0.0121442
13.8 0.0109441
13.81 0.0100064
13.82 0.00935141
13.83 0.0090031
13.84 0.00894353
13.85 0.00916968
13.86 0.00967319
13.87 0.0104404
13.88 0.0114528
13.89 0.0126871
13.9 0.0141159
13.91 0.0157156
13.92 0.0174434
13.93 0.0192567
13.94 0.0211167
13.95 0.022984
13.96 0.024819
13.97 0.026583
13.98 0.0282387
13.99 0.0297501
14 0.0310676
14.01 0.032177
14.02 0.0330548
14.03 0.0336824
14.04 0.0340463
14.05 0.0341382
14.06 0.0339553
14.07 0.0335005
14.08 0.0327707
14.09 0.0317811
14.1 0.0305642
14.11 0.0291446
14.12 0.0275506
14.13 0.0258142
14.14 0.0239704
14.15 0.0220562
14.16 0.0201102
14.17 0.0181756
14.18 0.0162947
14.19 0.0145053
14.2 0.0128439
14.21 0.0113444
14.22 0.0100378
14.23 0.00895119
14.24 0.00810756
14.25 0.00753349
14.26 0.00725298
14.27 0.00725589
14.28 0.00754381
14.29 0.00811298
14.3 0.0089544
14.31 0.010054
14.32 0.011393
14.33 0.0129482
14.34 0.0147034
14.35 0.0166164
14.36 0.0186487
14.37 0.0207648
14.38 0.0229278
14.39 0.0251005
14.4 0.0272459
14.41 0.0293278
14.42 0.0313097
14.43 0.0331478
14.44 0.0348217
14.45 0.0363061
14.46 0.0375798
14.47 0.0386259
14.48 0.0394318
14.49 0.0399899
14.5 0.0402972
14.51 0.0403425
14.52 0.0401367
14.53 0.039702
14.54 0.0390541
14.55 0.0382126
14.56 0.0372003
14.57 0.0360424
14.58 0.0347664
14.59 0.0334014
14.6 0.0319743
14.61 0.0305231
14.62 0.0290774
14.63 0.0276654
14.64 0.0263139
14.65 0.0250472
14.66 0.0238871
14.67 0.0228522
14.68 0.0219635
14.69 0.0212363
14.7 0.0206693
14.71 0.0202654
14.72 0.0200233
14.73 0.0199383
14.74 0.0200019
14.75 0.020202
14.76 0.0205239
14.77 0.0209564
14.78 0.0214713
14.79 0.0220451
14.8 0.022655
14.81 0.0232775
14.82 0.0238892
14.83 0.0244674
14.84 0.0249901
14.85 0.0254351
14.86 0.0257776
14.87 0.0260079
14.88 0.0261135
14.89 0.0260848
14.9 0.0259154
14.91 0.0256022
14.92 0.0251455
14.93 0.0245488
14.94 0.0238111
14.95 0.0229472
14.96 0.0219745
14.97 0.020908
14.98 0.0197647
14.99 0.0185631
15 0.0173227
15.01 0.0160635
15.02 0.0148058
15.03 0.0135727
15.04 0.0123823
15.05 0.0112518
15.06 0.0101961
15.07 0.00922843
15.08 0.00835909
15.09 0.00759584
15.1 0.00694345
15.11 0.00640883
15.12 0.00599029
15.13 0.00567732
15.14 0.00546194
15.15 0.00533352
15.16 0.00527895
15.17 0.00528302
15.18 0.00532873
15.19 0.00539776
15.2 0.00546949
15.21 0.00552221
15.22 0.00553632
15.23 0.00549292
15.24 0.00537418
15.25 0.00516385
15.26 0.00484763
15.27 0.00441354
15.28 0.00384816
15.29 0.00314029
15.3 0.00229563
15.31 0.00131493
15.32 0.00020225
15.33 -0.00103507
15.34 -0.00238651
15.35 -0.00383861
15.36 -0.00537512
15.37 -0.00698052
15.38 -0.00862868
15.39 -0.0102954
15.4 -0.011957
15.41 -0.0135891
15.42 -0.0151676
15.43 -0.0166685
15.44 -0.018069
15.45 -0.0193457
15.46 -0.0204682
15.47 -0.0214302
15.48 -0.0222183
15.49 -0.022822
15.5 -0.0232347
15.51 -0.0234532
15.52 -0.023478
15.53 -0.0233136
15.54 -0.0229587
15.55 -0.0224297
15.56 -0.0217497
15.57 -0.0209375
15.58 -0.0200149
15.59 -0.0190056
15.6 -0.0179355
15.61 -0.0168314
15.62 -0.0157213
15.63 -0.0146378
15.64 -0.0136084
15.65 -0.0126597
15.66 -0.0118163
15.67 -0.0111011
15.68 -0.010534
15.69 -0.0101322
15.7 -0.00990941
15.71 -0.00988339
15.72 -0.0100638
15.73 -0.0104412
15.74 -0.0110128
15.75 -0.0117716
15.76 -0.0127066
15.77 -0.0138034
15.78 -0.0150438
15.79 -0.0164066
15.8 -0.0178736
15.81 -0.0194098
15.82 -0.0209854
15.83 -0.0225714
15.84 -0.024138
15.85 -0.0256559
15.86 -0.0270963
15.87 -0.0284317
15.88 -0.0296329
15.89 -0.0306671
15.9 -0.031524
15.91 -0.0321873
15.92 -0.0326441
15.93 -0.0328858
15.94 -0.0329073
15.95 -0.0327082
15.96 -0.032292
15.97 -0.0316537
15.98 -0.0308134
15.99 -0.0297938
16 -0.0286144
16.01 -0.0272973
16.02 -0.0258676
16.03 -0.0243519
16.04 -0.0227785
16.05 -0.0211767
16.06 -0.0195789
16.07 -0.0180163
16.08 -0.016517
16.09 -0.0151077
16.1 -0.013813
16.11 -0.012655
16.12 -0.011653
16.13 -0.0108229
16.14 -0.0101864
16.15 -0.00975278
16.16 -0.00951728
16.17 -0.00947987
16.18 -0.00963666
16.19 -0.00998001
16.2 -0.0104987
16.21 -0.0111784
16.22 -0.0120015
16.23 -0.0129568
16.24 -0.0140103
16.25 -0.0151371
16.26 -0.016312
16.27 -0.0175097
16.28 -0.0187047
16.29 -0.0198723
16.3 -0.0209889
16.31 -0.0220294
16.32 -0.022969
16.33 -0.0237956
16.34 -0.0244952
16.35 -0.0250571
16.36 -0.0254737
16.37 -0.0257413
16.38 -0.0258592
16.39 -0.0258306
16.4 -0.0256526
16.41 -0.0253432
16.42 -0.0249187
16.43 -0.0243952
16.44 -0.0237908
16.45 -0.0231255
16.46 -0.0224204
16.47 -0.0216978
16.48 -0.0209807
16.49 -0.0202955
16.5 -0.0196631
16.51 -0.0191038
16.52 -0.0186362
16.53 -0.0182769
16.54 -0.0180401
16.55 -0.017937
16.56 -0.0179759
16.57 -0.0181704
16.58 -0.0185196
16.59 -0.0190152
16.6 -0.0196518
16.61 -0.0204204
16.62 -0.0213092
16.63 -0.0223036
16.64 -0.0233866
16.65 -0.0245388
16.66 -0.025742
16.67 -0.0269675
16.68 -0.0281923
16.69 -0.0293932
16.7 -0.0305473
16.71 -0.0316324
16.72 -0.0326277
16.73 -0.033514
16.74 -0.0342684
16.75 -0.0348727
16.76 -0.0353228
16.77 -0.0356104
16.78 -0.0357306
16.79 -0.0356818
16.8 -0.0354656
16.81 -0.0350872
16.82 -0.0345547
16.83 -0.0338695
16.84 -0.0330565
16.85 -0.0321351
16.86 -0.0311247
16.87 -0.0300464
16.88 -0.0289223
16.89 -0.0277757
16.9 -0.0266302
16.91 -0.0255102
16.92 -0.0244433
16.93 -0.023449
16.94 -0.0225471
16.95 -0.0217558
16.96 -0.0210906
16.97 -0.0205646
16.98 -0.0201881
16.99 -0.0199683
17 -0.0199197
17.01 -0.0200374
17.02 -0.0203135
17.03 -0.0207419
17.04 -0.0213136
17.05 -0.0220168
17.06 -0.0228375
17.07 -0.0237594
17.08 -0.0247649
17.09 -0.0258376
17.1 -0.0269498
17.11 -0.0280807
17.12 -0.0292092
17.13 -0.0303148
17.14 -0.0313778
17.15 -0.0323795
17.16 -0.0333032
17.17 -0.0341286
17.18 -0.0348418
17.19 -0.0354375
17.2 -0.0359084
17.21 -0.0362501
17.22 -0.036461
17.23 -0.0365421
17.24 -0.0364973
17.25 -0.0363328
17.26 -0.0360484
17.27 -0.0356653
17.28 -0.0351971
17.29 -0.0346583
17.3 -0.0340643
17.31 -0.0334315
17.32 -0.0327763
17.33 -0.0321154
17.34 -0.0314656
17.35 -0.0308448
17.36 -0.030266
17.37 -0.0297415
17.38 -0.029282
17.39 -0.0288959
17.4 -0.0285898
17.41 -0.0283677
17.42 -0.0282314
17.43 -0.0281861
17.44 -0.0282239
17.45 -0.0283373
17.46 -0.0285185
17.47 -0.0287579
17.48 -0.0290442
17.49 -0.029365
17.5 -0.0297067
17.51 -0.0300551
17.52 -0.0303935
17.53 -0.0307074
17.54 -0.0309827
17.55 -0.0312065
17.56 -0.0313668
17.57 -0.0314532
17.58 -0.0314568
17.59 -0.031371
17.6 -0.0311854
17.61 -0.0308995
17.62 -0.0305172
17.63 -0.0300414
17.64 -0.0294771
17.65 -0.0288317
17.66 -0.0281145
17.67 -0.0273369
17.68 -0.0265117
17.69 -0.0256518
17.7 -0.0247769
17.71 -0.0239034
17.72 -0.0230478
17.73 -0.0222267
17.74 -0.0214562
17.75 -0.0207517
17.76 -0.0201274
17.77 -0.0196004
17.78 -0.0191842
17.79 -0.0188824
17.8 -0.0187014
17.81 -0.0186451
17.82 -0.0187151
17.83 -0.0189103
17.84 -0.019227
17.85 -0.0196592
17.86 -0.0202062
17.87 -0.0208488
17.88 -0.0215722
17.89 -0.0223618
17.9 -0.0232012
17.91 -0.0240731
17.92 -0.0249593
17.93 -0.0258415
17.94 -0.0267001
17.95 -0.0275133
17.96 -0.0282658
17.97 -0.0289416
17.98 -0.0295263
17.99 -0.0300073
18 -0.0303738
18.01 -0.0306175
18.02 -0.0307323
18.03 -0.0307061
18.04 -0.0305428
18.05 -0.0302485
18.06 -0.0298279
18.07 -0.0292881
18.08 -0.0286382
18.09 -0.0278894
18.1 -0.0270548
18.11 -0.0261482
18.12 -0.0251827
18.13 -0.0241805
18.14 -0.0231585
18.15 -0.0221335
18.16 -0.0211221
18.17 -0.0201399
18.18 -0.0192017
18.19 -0.0183208
18.2 -0.017513
18.21 -0.0167888
18.22 -0.0161525
18.23 -0.0156091
18.24 -0.0151614
18.25 -0.0148101
18.26 -0.0145531
18.27 -0.0143865
18.28 -0.014304
18.29 -0.0143033
18.3 -0.0143671
18.31 -0.0144831
18.32 -0.0146386
18.33 -0.0148197
18.34 -0.0150124
18.35 -0.0152021
18.36 -0.0153748
18.37 -0.0155154
18.38 -0.0156084
18.39 -0.0156446
18.4 -0.0156142
18.41 -0.0155093
18.42 -0.0153238
18.43 -0.0150537
18.44 -0.0146975
18.45 -0.0142557
18.46 -0.0137255
18.47 -0.0131173
18.48 -0.0124406
18.49 -0.0117052
18.5 -0.0109226
18.51 -0.0101058
18.52 -0.00926926
18.53 -0.00842816
18.54 -0.00759892
18.55 -0.00680101
18.56 -0.00604937
18.57 -0.00535946
18.58 -0.00474586
18.59 -0.00422196
18.6 -0.00379966
18.61 -0.00348904
18.62 -0.00329823
18.63 -0.00324055
18.64 -0.00331699
18.65 -0.00352337
18.66 -0.00385765
18.67 -0.00431526
18.68 -0.00488926
18.69 -0.00557035
18.7 -0.00634712
18.71 -0.00720639
18.72 -0.00813757
18.73 -0.00911663
18.74 -0.0101259
18.75 -0.0111471
18.76 -0.0121618
18.77 -0.0131514
18.78 -0.014098
18.79 -0.0149845
18.8 -0.0157909
18.81 -0.0165003
18.82 -0.0171044
18.83 -0.0175929
18.84 -0.0179578
18.85 -0.0181935
18.86 -0.0182969
18.87 -0.0182674
18.88 -0.0181069
18.89 -0.0178099
18.9 -0.017393
18.91 -0.016867
18.92 -0.0162434
18.93 -0.0155351
18.94 -0.0147564
18.95 -0.0139228
18.96 -0.0130502
18.97 -0.0121552
18.98 -0.0112556
18.99 -0.0103689
19 -0.00951035
19.01 -0.00869399
19.02 -0.00793258
19.03 -0.0072372
19.04 -0.00661707
19.05 -0.00607934
19.06 -0.00563492
19.07 -0.00528321
19.08 -0.00502154
19.09 -0.00484749
19.1 -0.00475645
19.11 -0.00474176
19.12 -0.00479489
19.13 -0.00490563
19.14 -0.00506273
19.15 -0.00525453
19.16 -0.00546368
19.17 -0.00567616
19.18 -0.00587791
19.19 -0.00605517
19.2 -0.00619481
19.21 -0.00628468
19.22 -0.00631389
19.23 -0.00626914
19.24 -0.00614256
19.25 -0.00593216
19.26 -0.00563494
19.27 -0.00525015
19.28 -0.00477929
19.29 -0.00422613
19.3 -0.00359664
19.31 -0.00289887
19.32 -0.00213858
19.33 -0.00133362
19.34 -0.000497645
19.35 0.000354862
19.36 0.00120867
19.37 0.00204814
19.38 0.00285756
19.39 0.00362154
19.4 0.00432274
19.41 0.00494411
19.42 0.00547738
19.43 0.00591224
19.44 0.00624042
19.45 0.00645583
19.46 0.00655476
19.47 0.00653602
19.48 0.00640101
19.49 0.00614586
19.5 0.00578424
19.51 0.00532799
19.52 0.00478898
19.53 0.00418112
19.54 0.00352013
19.55 0.00282322
19.56 0.00210878
19.57 0.00139642
19.58 0.000709044
19.59 6.58317e-05
19.6 -0.000514178
19.61 -0.00101286
19.62 -0.00141336
19.63 -0.00170049
19.64 -0.00186104
19.65 -0.00188406
19.66 -0.00175224
19.67 -0.00146297
19.68 -0.00101942
19.69 -0.000422493
19.7 0.00032392
19.71 0.00121296
19.72 0.00223493
19.73 0.00337742
19.74 0.00462588
19.75 0.0059691
19.76 0.00737836
19.77 0.00883287
19.78 0.0103108
19.79 0.0117897
19.8 0.0132468
19.81 0.01466
19.82 0.0160073
19.83 0.0172637
19.84 0.0184069
19.85 0.0194249
19.86 0.0203033
19.87 0.0210302
19.88 0.0215966
19.89 0.0219965
19.9 0.022227
19.91 0.0222883
19.92 0.0221706
19.93 0.0218931
19.94 0.0214678
19.95 0.0209073
19.96 0.020227
19.97 0.0194438
19.98 0.0185769
19.99 0.0176466
20 0.0166738
20.01 0.0156819
20.02 0.0146955
20.03 0.013736
20.04 0.0128239
20.05 0.0119786
20.06 0.0112175
20.07 0.0105562
20.08 0.010008
20.09 0.00959224
20.1 0.00931245
20.11 0.00916946
20.12 0.00916454
20.13 0.00929599
20.14 0.00955919
20.15 0.00994672
20.16 0.0104485
20.17 0.0110532
20.18 0.0117508
20.19 0.0125164
20.2 0.013332
20.21 0.0141788
20.22 0.0150376
20.23 0.0158891
20.24 0.0167141
20.25 0.0174946
20.26 0.0182097
20.27 0.0188427
20.28 0.0193834
20.29 0.019821
20.3 0.0201475
20.31 0.0203572
20.32 0.0204475
20.33 0.0204185
20.34 0.0202732
20.35 0.0200085
20.36 0.0196434
20.37 0.01919
20.38 0.0186623
20.39 0.0180758
20.4 0.0174479
20.41 0.0167972
20.42 0.0161427
20.43 0.0155056
20.44 0.0149085
20.45 0.0143693
20.46 0.0139059
20.47 0.0135346
20.48 0.0132703
20.49 0.0131255
20.5 0.0131103
20.51 0.0132323
20.52 0.013507
20.53 0.0139279
20.54 0.01449
20.55 0.0151885
20.56 0.0160153
20.57 0.0169596
20.58 0.0180079
20.59 0.0191445
20.6 0.0203525
20.61 0.0216129
20.62 0.0228995
20.63 0.0241904
20.64 0.0254634
20.65 0.0266962
20.66 0.0278672
20.67 0.0289557
20.68 0.0299425
20.69 0.0308018
20.7 0.03152
20.71 0.0320888
20.72 0.032499
20.73 0.0327439
20.74 0.0328201
20.75 0.0327276
20.76 0.0324694
20.77 0.0320509
20.78 0.0314699
20.79 0.0307533
20.8 0.0299166
20.81 0.0289774
20.82 0.0279552
20.83 0.0268711
20.84 0.0257475
20.85 0.0246071
20.86 0.0234747
20.87 0.0223763
20.88 0.0213334
20.89 0.0203671
20.9 0.0194967
20.91 0.0187395
20.92 0.0181107
20.93 0.0176227
20.94 0.0172853
20.95 0.0171186
20.96 0.0171147
20.97 0.0172715
20.98 0.0175858
20.99 0.018051
21 0.0186579
21.01 0.0193945
21.02 0.0202464
21.03 0.0211994
21.04 0.0222361
21.05 0.0233302
21.06 0.0244608
21.07 0.0256069
21.08 0.0267471
21.09 0.0278607
21.1 0.0289276
21.11 0.0299291
21.12 0.0308414
21.13 0.0316511
21.14 0.0323481
21.15 0.0329222
21.16 0.0333662
21.17 0.0336754
21.18 0.0338481
21.19 0.0338854
21.2 0.0337894
21.21 0.0335592
21.22 0.033215
21.23 0.0327686
21.24 0.0322337
21.25 0.0316257
21.26 0.0309611
21.27 0.0302577
21.28 0.0295334
21.29 0.0288073
21.3 0.0280996
21.31 0.0274274
21.32 0.0268068
21.33 0.0262524
21.34 0.0257773
21.35 0.0253923
21.36 0.0251065
21.37 0.0249263
21.38 0.024866
21.39 0.0249172
21.4 0.025078
21.41 0.0253445
21.42 0.0257106
21.43 0.0261678
21.44 0.0267059
21.45 0.0273128
21.46 0.0279766
21.47 0.0286819
21.48 0.0294102
21.49 0.0301457
21.5 0.0308728
21.51 0.0315761
21.52 0.0322411
21.53 0.0328541
21.54 0.0334028
21.55 0.0338701
21.56 0.0342507
21.57 0.0345396
21.58 0.0347324
21.59 0.0348267
21.6 0.0348227
21.61 0.0347225
21.62 0.0345304
21.63 0.0342511
21.64 0.0338897
21.65 0.0334623
21.66 0.0329805
21.67 0.0324565
21.68 0.0319035
21.69 0.0313349
21.7 0.0307643
21.71 0.0302052
21.72 0.0296725
21.73 0.0291789
21.74 0.028734
21.75 0.0283471
21.76 0.0280256
21.77 0.0277752
21.78 0.0275998
21.79 0.0275012
21.8 0.0274795
21.81 0.0275384
21.82 0.0276663
21.83 0.0278569
21.84 0.0281021
21.85 0.0283922
21.86 0.0287166
21.87 0.0290637
21.88 0.029421
21.89 0.0297751
21.9 0.0301117
21.91 0.0304187
21.92 0.0306843
21.93 0.0308979
21.94 0.0310499
21.95 0.0311323
21.96 0.0311389
21.97 0.031065
21.98 0.0309012
21.99 0.0306535
22 0.0303248
22.01 0.0299195
22.02 0.0294437
22.03 0.0289056
22.04 0.0283149
22.05 0.0276831
22.06 0.0270222
22.07 0.0263471
22.08 0.0256738
22.09 0.025017
22.1 0.0243912
22.11 0.0238105
22.12 0.0232885
22.13 0.0228374
22.14 0.0224682
22.15 0.0221972
22.16 0.0220281
22.17 0.0219636
22.18 0.0220061
22.19 0.0221558
22.2 0.0224103
22.21 0.022765
22.22 0.0232128
22.23 0.0237452
22.24 0.0243542
22.25 0.0250195
22.26 0.0257256
22.27 0.026456
22.28 0.0271932
22.29 0.027919
22.3 0.0286152
22.31 0.0292637
22.32 0.0298426
22.33 0.0303342
22.34 0.0307266
22.35 0.0310067
22.36 0.0311634
22.37 0.0311881
22.38 0.0310746
22.39 0.0308194
22.4 0.0304219
22.41 0.029872
22.42 0.0291883
22.43 0.0283797
22.44 0.0274575
22.45 0.0264354
22.46 0.0253293
22.47 0.0241572
22.48 0.0229385
22.49 0.0216937
22.5 0.0204471
22.51 0.0192219
22.52 0.0180398
22.53 0.0169222
22.54 0.0158894
22.55 0.0149601
22.56 0.0141515
22.57 0.0134785
22.58 0.0129658
22.59 0.0126147
22.6 0.012429
22.61 0.0124115
22.62 0.0125622
22.63 0.0128778
22.64 0.0133518
22.65 0.0139748
22.66 0.0147371
22.67 0.0156279
22.68 0.0166199
22.69 0.0176932
22.7 0.0188269
22.71 0.0199986
22.72 0.0211853
22.73 0.0223641
22.74 0.0235119
22.75 0.0246019
22.76 0.0256126
22.77 0.0265265
22.78 0.0273266
22.79 0.0279983
22.8 0.0285295
22.81 0.0289109
22.82 0.0291365
22.83 0.0292022
22.84 0.0290955
22.85 0.0288346
22.86 0.0284267
22.87 0.0278818
22.88 0.0272126
22.89 0.0264342
22.9 0.0255637
22.91 0.02462
22.92 0.0236217
22.93 0.0225924
22.94 0.0215561
22.95 0.0205339
22.96 0.0195464
22.97 0.018613
22.98 0.0177519
22.99 0.0169793
23 0.0163091
23.01 0.0157633
23.02 0.0153423
23.03 0.0150502
23.04 0.0148891
23.05 0.0148578
23.06 0.0149524
23.07 0.0151657
23.08 0.0154878
23.09 0.0159087
23.1 0.0164143
23.11 0.0169812
23.12 0.0175907
23.13 0.0182229
23.14 0.0188571
23.15 0.0194726
23.16 0.0200487
23.17 0.0205656
23.18 0.0209976
23.19 0.0213297
23.2 0.0215491
23.21 0.0216433
23.22 0.0216027
23.23 0.0214204
23.24 0.0210928
23.25 0.0206192
23.26 0.0200004
23.27 0.0192342
23.28 0.0183417
23.29 0.0173356
23.3 0.016231
23.31 0.0150455
23.32 0.0137988
23.33 0.012512
23.34 0.0112075
23.35 0.0099101
23.36 0.00864584
23.37 0.00743737
23.38 0.0063068
23.39 0.00527493
23.4 0.00436081
23.41 0.00358131
23.42 0.00295077
23.43 0.00248068
23.44 0.00219573
23.45 0.00208507
23.46 0.00214938
23.47 0.00238593
23.48 0.00278853
23.49 0.00334759
23.5 0.00405033
23.51 0.004881
23.52 0.00582456
23.53 0.00685897
23.54 0.00795525
23.55 0.009089
23.56 0.010235
23.57 0.0113676
23.58 0.0124615
23.59 0.0134918
23.6 0.014435
23.61 0.0152591
23.62 0.0159495
23.63 0.0164914
23.64 0.0168712
23.65 0.0170784
23.66 0.0171061
23.67 0.0169511
23.68 0.0166138
23.69 0.0160943
23.7 0.0153935
23.71 0.0145363
23.72 0.0135379
23.73 0.0124166
23.74 0.0111934
23.75 0.00989129
23.76 0.00853496
23.77 0.00715044
23.78 0.00576609
23.79 0.00441181
23.8 0.00311389
23.81 0.00189765
23.82 0.000786884
23.83 -0.000196658
23.84 -0.00103366
23.85 -0.00170767
23.86 -0.00220398
23.87 -0.00249743
23.88 -0.00259828
23.89 -0.0025051
23.9 -0.00222037
23.91 -0.00175036
23.92 -0.00110507
23.93 -0.000298031
23.94 0.000653953
23.95 0.00173592
23.96 0.0029224
23.97 0.00418269
23.98 0.00549036
23.99 0.00681798
24 0.00813761
24.01 0.0094214
24.02 0.0106421
24.03 0.0117735
24.04 0.0127794
24.05 0.0136447
24.06 0.0143513
24.07 0.014883
24.08 0.0152271
24.09 0.0153742
24.1 0.0153189
24.11 0.0150596
24.12 0.0145924
24.13 0.0139184
24.14 0.0130607
24.15 0.0120335
24.16 0.0108539
24.17 0.00954185
24.18 0.00811981
24.19 0.00661208
24.2 0.0050445
24.21 0.00344353
24.22 0.0018408
24.23 0.000264124
24.24 -0.00126015
24.25 -0.0027069
24.26 -0.00405272
24.27 -0.00527636
24.28 -0.00635909
24.29 -0.00728238
24.3 -0.00802198
24.31 -0.00858197
24.32 -0.00895747
24.33 -0.00914725
24.34 -0.00915367
24.35 -0.00898263
24.36 -0.00864341
24.37 -0.00814843
24.38 -0.00750626
24.39 -0.0067395
24.4 -0.00587401
24.41 -0.00493187
24.42 -0.00393632
24.43 -0.00291129
24.44 -0.00188088
24.45 -0.000868939
24.46 0.000101442
24.47 0.00100053
24.48 0.00181285
24.49 0.00252077
24.5 0.00310911
24.51 0.00356543
24.52 0.00388022
24.53 0.00404711
24.54 0.00406286
24.55 0.00392164
24.56 0.00362519
24.57 0.00318873
24.58 0.00262205
24.59 0.00193755
24.6 0.0011499
24.61 0.000275759
24.62 -0.000666621
24.63 -0.0016578
24.64 -0.0026782
24.65 -0.00370352
24.66 -0.00471304
24.67 -0.0056871
24.68 -0.0066071
24.69 -0.00745587
24.7 -0.00821803
24.71 -0.0088803
24.72 -0.00942882
24.73 -0.00984912
24.74 -0.0101441
24.75 -0.0103114
24.76 -0.0103519
24.77 -0.0102688
24.78 -0.0100681
24.79 -0.00975858
24.8 -0.00935092
24.81 -0.00885358
24.82 -0.0082858
24.83 -0.00766642
24.84 -0.00701261
24.85 -0.00634209
24.86 -0.00567272
24.87 -0.00502208
24.88 -0.00440713
24.89 -0.00384441
24.9 -0.00335493
24.91 -0.00294649
24.92 -0.00262957
24.93 -0.00241241
24.94 -0.00230085
24.95 -0.00229823
24.96 -0.00240534
24.97 -0.00262037
24.98 -0.00294367
24.99 -0.00336719
25 -0.0038767
25.01 -0.0044608
25.02 -0.00510636
25.03 -0.00579888
25.04 -0.00652276
25.05 -0.00726171
25.06 -0.00799907
25.07 -0.00871516
25.08 -0.00939395
25.09 -0.0100204
25.1 -0.0105803
25.11 -0.0110613
25.12 -0.0114526
25.13 -0.0117455
25.14 -0.0119335
25.15 -0.0120088
25.16 -0.0119667
25.17 -0.0118154
25.18 -0.0115588
25.19 -0.0112032
25.2 -0.0107573
25.21 -0.0102317
25.22 -0.0096391
25.23 -0.00899353
25.24 -0.00830899
25.25 -0.00760553
25.26 -0.00690107
25.27 -0.00621289
25.28 -0.00555805
25.29 -0.00495303
25.3 -0.00441339
25.31 -0.00395343
25.32 -0.00358765
25.33 -0.00333417
25.34 -0.00319398
25.35 -0.00317309
25.36 -0.00327509
25.37 -0.00350108
25.38 -0.0038496
25.39 -0.00431673
25.4 -0.00489614
25.41 -0.0055844
25.42 -0.00636738
25.43 -0.00722817
25.44 -0.00815224
25.45 -0.00912387
25.46 -0.0101264
25.47 -0.0111427
25.48 -0.0121553
25.49 -0.0131471
25.5 -0.0140963
25.51 -0.0149898
25.52 -0.0158132
25.53 -0.0165539
25.54 -0.0172011
25.55 -0.0177461
25.56 -0.0181823
25.57 -0.0185054
25.58 -0.0187092
25.59 -0.0187932
25.6 -0.0187672
25.61 -0.0186373
25.62 -0.0184116
25.63 -0.0181003
25.64 -0.0177151
25.65 -0.0172695
25.66 -0.0167781
25.67 -0.016255
25.68 -0.0157198
25.69 -0.015189
25.7 -0.0146784
25.71 -0.0142033
25.72 -0.0137779
25.73 -0.0134152
25.74 -0.0131267
25.75 -0.0129246
25.76 -0.0128211
25.77 -0.0128155
25.78 -0.0129105
25.79 -0.0131064
25.8 -0.0134015
25.81 -0.0137914
25.82 -0.0142697
25.83 -0.0148279
25.84 -0.0154592
25.85 -0.0161477
25.86 -0.0168777
25.87 -0.0176343
25.88 -0.0184023
25.89 -0.0191658
25.9 -0.0199091
25.91 -0.0206166
25.92 -0.0212731
25.93 -0.0218587
25.94 -0.0223656
25.95 -0.0227834
25.96 -0.0231034
25.97 -0.023319
25.98 -0.0234259
25.99 -0.0234218
26 -0.023307
26.01 -0.023079
26.02 -0.022744
26.03 -0.0223144
26.04 -0.0217998
26.05 -0.0212114
26.06 -0.0205621
26.07 -0.0198662
26.08 -0.0191388
26.09 -0.0183958
26.1 -0.0176547
26.11 -0.0169331
26.12 -0.0162467
26.13 -0.0156103
26.14 -0.0150378
26.15 -0.0145418
26.16 -0.014133
26.17 -0.0138206
26.18 -0.0136151
26.19 -0.0135247
26.2 -0.0135451
26.21 -0.0136759
26.22 -0.0139146
26.23 -0.0142563
26.24 -0.0146941
26.25 -0.0152191
26.26 -0.0158205
26.27 -0.0164899
26.28 -0.0172088
26.29 -0.0179614
26.3 -0.0187323
26.31 -0.0195061
26.32 -0.0202675
26.33 -0.0210013
26.34 -0.0216934
26.35 -0.0223294
26.36 -0.0228923
26.37 -0.0233765
26.38 -0.0237739
26.39 -0.0240784
26.4 -0.024286
26.41 -0.0243949
26.42 -0.0244055
26.43 -0.0243202
26.44 -0.0241391
26.45 -0.0238717
26.46 -0.0235304
26.47 -0.0231256
26.48 -0.0226693
26.49 -0.0221745
26.5 -0.0216548
26.51 -0.0211246
26.52 -0.0205981
26.53 -0.0200926
26.54 -0.019621
26.55 -0.0191958
26.56 -0.0188287
26.57 -0.0185295
26.58 -0.0183068
26.59 -0.0181671
26.6 -0.0181149
26.61 -0.0181565
26.62 -0.0182931
26.63 -0.0185175
26.64 -0.0188253
26.65 -0.0192101
26.66 -0.0196636
26.67 -0.0201758
26.68 -0.0207353
26.69 -0.0213296
26.7 -0.0219455
26.71 -0.0225663
26.72 -0.0231771
26.73 -0.0237636
26.74 -0.0243119
26.75 -0.0248089
26.76 -0.0252424
26.77 -0.0256017
26.78 -0.0258751
26.79 -0.026051
26.8 -0.02613
26.81 -0.0261095
26.82 -0.0259888
26.83 -0.0257695
26.84 -0.0254556
26.85 -0.0250531
26.86 -0.0245698
26.87 -0.024012
26.88 -0.0233951
26.89 -0.0227344
26.9 -0.0220442
26.91 -0.0213396
26.92 -0.0206359
26.93 -0.0199486
26.94 -0.0192932
26.95 -0.0186847
26.96 -0.0181428
26.97 -0.0176754
26.98 -0.0172931
26.99 -0.0170045
27 -0.0168164
27.01 -0.0167333
27.02 -0.0167571
27.03 -0.0168877
27.04 -0.0171272
27.05 -0.0174692
27.06 -0.0179011
27.07 -0.0184128
27.08 -0.0189926
27.09 -0.0196269
27.1 -0.0203007
27.11 -0.0209979
27.12 -0.0217019
27.13 -0.0223928
27.14 -0.0230532
27.15 -0.0236663
27.16 -0.0242163
27.17 -0.0246885
27.18 -0.0250697
27.19 -0.0253484
27.2 -0.0255153
27.21 -0.0255592
27.22 -0.0254719
27.23 -0.0252592
27.24 -0.0249226
27.25 -0.0244659
27.26 -0.0238957
27.27 -0.0232213
27.28 -0.022454
27.29 -0.0216075
27.3 -0.0206939
27.31 -0.0197358
27.32 -0.018753
27.33 -0.0177651
27.34 -0.0167917
27.35 -0.0158529
27.36 -0.0149682
27.37 -0.0141561
27.38 -0.0134362
27.39 -0.0128321
27.4 -0.0123503
27.41 -0.0120021
27.42 -0.0117964
27.43 -0.0117392
27.44 -0.0118338
27.45 -0.0120806
27.46 -0.0124768
27.47 -0.0130249
27.48 -0.0137118
27.49 -0.0145205
27.5 -0.015437
27.51 -0.0164448
27.52 -0.0175259
27.53 -0.0186603
27.54 -0.0198274
27.55 -0.0210054
27.56 -0.0221695
27.57 -0.0232972
27.58 -0.0243676
27.59 -0.0253607
27.6 -0.0262582
27.61 -0.0270433
27.62 -0.0277016
27.63 -0.028221
27.64 -0.0285857
27.65 -0.0287873
27.66 -0.0288309
27.67 -0.0287167
27.68 -0.0284481
27.69 -0.0280315
27.7 -0.0274761
27.71 -0.0267938
27.72 -0.0259989
27.73 -0.0251016
27.74 -0.0241286
27.75 -0.023101
27.76 -0.0220399
27.77 -0.0209663
27.78 -0.0199019
27.79 -0.0188677
27.8 -0.0178839
27.81 -0.0169719
27.82 -0.0161545
27.83 -0.0154418
27.84 -0.0148466
27.85 -0.0143788
27.86 -0.0140458
27.87 -0.0138521
27.88 -0.013799
27.89 -0.0138849
27.9 -0.0141136
27.91 -0.0144712
27.92 -0.0149432
27.93 -0.0155163
27.94 -0.016175
27.95 -0.0169021
27.96 -0.017679
27.97 -0.0184857
27.98 -0.0193016
27.99 -0.0201032
28 -0.0208695
28.01 -0.0215807
28.02 -0.0222183
28.03 -0.0227654
28.04 -0.0232067
28.05 -0.0235293
28.06 -0.0237227
28.07 -0.0237717
28.08 -0.0236723
28.09 -0.0234291
28.1 -0.0230438
28.11 -0.022521
28.12 -0.0218684
28.13 -0.0210961
28.14 -0.020217
28.15 -0.019246
28.16 -0.0181951
28.17 -0.0170911
28.18 -0.0159543
28.19 -0.0148056
28.2 -0.0136659
28.21 -0.0125562
28.22 -0.0114969
28.23 -0.0105074
28.24 -0.00960953
28.25 -0.0088238
28.26 -0.00815861
28.27 -0.00762532
28.28 -0.00723266
28.29 -0.00698653
28.3 -0.00688995
28.31 -0.00694294
28.32 -0.00714259
28.33 -0.00749297
28.34 -0.0079764
28.35 -0.00857841
28.36 -0.00928493
28.37 -0.0100799
28.38 -0.0109457
28.39 -0.0118632
28.4 -0.0128126
28.41 -0.0137732
28.42 -0.0147219
28.43 -0.015638
28.44 -0.0165024
28.45 -0.0172971
28.46 -0.0180058
28.47 -0.018614
28.48 -0.0191095
28.49 -0.0194826
28.5 -0.019718
28.51 -0.0198144
28.52 -0.0197754
28.53 -0.019603
28.54 -0.0193018
28.55 -0.0188793
28.56 -0.0183451
28.57 -0.0177116
28.58 -0.0169923
28.59 -0.0161989
28.6 -0.0153563
28.61 -0.0144827
28.62 -0.0135969
28.63 -0.0127177
28.64 -0.0118636
28.65 -0.0110526
28.66 -0.0103014
28.67 -0.00962905
28.68 -0.00905136
28.69 -0.00857535
28.7 -0.00820971
28.71 -0.0079606
28.72 -0.00783155
28.73 -0.00782342
28.74 -0.00793435
28.75 -0.00815983
28.76 -0.00850097
28.77 -0.00893939
28.78 -0.00946177
28.79 -0.0100542
28.8 -0.0107011
28.81 -0.0113859
28.82 -0.012091
28.83 -0.0127984
28.84 -0.013489
28.85 -0.0141418
28.86 -0.0147412
28.87 -0.0152715
28.88 -0.0157186
28.89 -0.01607
28.9 -0.0163155
28.91 -0.0164471
28.92 -0.0164593
28.93 -0.016341
28.94 -0.0160972
28.95 -0.0157343
28.96 -0.0152582
28.97 -0.0146769
28.98 -0.0140012
28.99 -0.0132436
29 -0.0124188
29.01 -0.0115424
29.02 -0.0106314
29.03 -0.00970815
29.04 -0.00879129
29.05 -0.00789962
29.06 -0.00705148
29.07 -0.0062644
29.08 -0.00555481
29.09 -0.00493758
29.1 -0.00443191
29.11 -0.00404881
29.12 -0.0037918
29.13 -0.00366639
29.14 -0.00367542
29.15 -0.00381897
29.16 -0.00409435
29.17 -0.00449619
29.18 -0.00501648
29.19 -0.00565349
29.2 -0.00638358
29.21 -0.00719131
29.22 -0.00805995
29.23 -0.0089715
29.24 -0.00990703
29.25 -0.0108471
29.26 -0.0117721
29.27 -0.0126607
29.28 -0.0134909
29.29 -0.0142476
29.3 -0.0149147
29.31 -0.0154783
29.32 -0.0159263
29.33 -0.0162489
29.34 -0.0164389
29.35 -0.0164919
29.36 -0.0163953
29.37 -0.0161588
29.38 -0.0157891
29.39 -0.0152932
29.4 -0.0146804
29.41 -0.0139626
29.42 -0.0131533
29.43 -0.012268
29.44 -0.0113227
29.45 -0.0103353
29.46 -0.00932869
29.47 -0.00832176
29.48 -0.00733329
29.49 -0.00638148
29.5 -0.00548356
29.51 -0.00465551
29.52 -0.00391167
29.53 -0.00327095
29.54 -0.00274192
29.55 -0.00232857
29.56 -0.00203565
29.57 -0.00186532
29.58 -0.00181704
29.59 -0.00188763
29.6 -0.00207137
29.61 -0.00236057
29.62 -0.00275152
29.63 -0.00322211
29.64 -0.00375781
29.65 -0.00434273
29.66 -0.00495999
29.67 -0.00559207
29.68 -0.0062212
29.69 -0.00682974
29.7 -0.00739809
29.71 -0.00790785
29.72 -0.00834634
29.73 -0.00870056
29.74 -0.00895945
29.75 -0.00911414
29.76 -0.00915812
29.77 -0.00908742
29.78 -0.0089007
29.79 -0.00858995
29.8 -0.00816843
29.81 -0.00764448
29.82 -0.00702767
29.83 -0.00632983
29.84 -0.00556475
29.85 -0.00474796
29.86 -0.00389636
29.87 -0.00302803
29.88 -0.00216385
29.89 -0.0013237
29.9 -0.000526313
29.91 0.000210192
29.92 0.000868676
29.93 0.00143335
29.94 0.00189013
29.95 0.00222692
29.96 0.00242447
29.97 0.00248065
29.98 0.00239486
29.99 0.00216593
30 0.00179558
30.01 0.00128838
30.02 0.000651734
30.03 -0.000104279
30.04 -0.000968285
30.05 -0.00192978
30.06 -0.00296292
30.07 -0.0040487
30.08 -0.00516682
30.09 -0.00629611
30.1 -0.00741486
30.11 -0.00850129
30.12 -0.00953395
30.13 -0.0104871
30.14 -0.0113397
30.15 -0.0120774
30.16 -0.0126844
30.17 -0.0131473
30.18 -0.0134551
30.19 -0.0135995
30.2 -0.0135753
30.21 -0.0133801
30.22 -0.0129992
30.23 -0.0124526
30.24 -0.0117482
30.25 -0.0108961
30.26 -0.00990951
30.27 -0.00880363
30.28 -0.007596
30.29 -0.00630597
30.3 -0.00495288
30.31 -0.00356063
30.32 -0.00215526
30.33 -0.000759642
30.34 0.000603577
30.35 0.00191239
30.36 0.00314583
30.37 0.0042843
30.38 0.00530996
30.39 0.00619606
30.4 0.00693588
30.41 0.00752141
30.42 0.00794513
30.43 0.00820239
30.44 0.00829146
30.45 0.00821355
30.46 0.00797276
30.47 0.00757276
30.48 0.00701699
30.49 0.00632914
30.5 0.00552385
30.51 0.00461753
30.52 0.00362816
30.53 0.00257487
30.54 0.00147762
30.55 0.000356832
30.56 -0.000765897
30.57 -0.00186805
30.58 -0.00293024
30.59 -0.00393416
30.6 -0.00486287
30.61 -0.00570109
30.62 -0.0064354
30.63 -0.00705451
30.64 -0.00754852
30.65 -0.00789961
30.66 -0.0081152
30.67 -0.00819408
30.68 -0.00813748
30.69 -0.00794897
30.7 -0.00763434
30.71 -0.00720145
30.72 -0.00666004
30.73 -0.00601764
30.74 -0.00528859
30.75 -0.00449166
30.76 -0.00364173
30.77 -0.00275413
30.78 -0.00184439
30.79 -0.000927877
30.8 -1.95922e-05
30.81 0.000866149
30.82 0.00171182
30.83 0.00250703
30.84 0.00324152
30.85 0.00390625
30.86 0.00449379
30.87 0.00499844
30.88 0.00541629
30.89 0.0057452
30.9 0.00598211
30.91 0.0061257
30.92 0.00618497
30.93 0.00616463
30.94 0.00607067
30.95 0.0059102
30.96 0.00569126
30.97 0.00542258
30.98 0.00511342
30.99 0.00477186
31 0.00440989
31.01 0.00403768
31.02 0.00366428
31.03 0.00329818
31.04 0.00294717
31.05 0.00261816
31.06 0.00231714
31.07 0.00204954
31.08 0.00182183
31.09 0.00163367
31.1 0.00148628
31.11 0.00137971
31.12 0.00131295
31.13 0.00128398
31.14 0.00128984
31.15 0.00132679
31.16 0.00139156
31.17 0.00147813
31.18 0.00158003
31.19 0.00169161
31.2 0.00180718
31.21 0.00192112
31.22 0.00202808
31.23 0.00212305
31.24 0.00220151
31.25 0.00225729
31.26 0.00228889
31.27 0.00229397
31.28 0.00227099
31.29 0.00221921
31.3 0.00213869
31.31 0.00203031
31.32 0.00189569
31.33 0.00173635
31.34 0.00155532
31.35 0.00135752
31.36 0.00114699
31.37 0.000928069
31.38 0.000705302
31.39 0.000483318
31.4 0.000266719
31.41 5.99715e-05
31.42 -0.000131294
31.43 -0.000303752
31.44 -0.000454292
31.45 -0.000580077
31.46 -0.000678835
31.47 -0.000748898
31.48 -0.000789225
31.49 -0.000799406
31.5 -0.000778985
31.51 -0.000727511
31.52 -0.000648606
31.53 -0.000544242
31.54 -0.000416802
31.55 -0.000269008
31.56 -0.000103833
31.57 7.55876e-05
31.58 0.000266049
31.59 0.000464659
31.6 0.000667788
31.61 0.000872377
31.62 0.0010759
31.63 0.00127618
31.64 0.00147146
31.65 0.00166041
31.66 0.00184218
31.67 0.00201636
31.68 0.00218254
31.69 0.00234205
31.7 0.002496
31.71 0.00264586
31.72 0.00279341
31.73 0.00294066
31.74 0.00308978
31.75 0.00324301
31.76 0.00340297
31.77 0.00357203
31.78 0.00375172
31.79 0.00394357
31.8 0.00414874
31.81 0.00436792
31.82 0.00460128
31.83 0.00484846
31.84 0.00510846
31.85 0.0053805
31.86 0.00566122
31.87 0.0059476
31.88 0.00623619
31.89 0.00652303
31.9 0.00680376
31.91 0.00707365
31.92 0.00732775
31.93 0.00756013
31.94 0.00776425
31.95 0.00793648
31.96 0.00807208
31.97 0.00816666
31.98 0.00821633
31.99 0.00821778
32 0.00816839
32.01 0.00806634
32.02 0.00790686
32.03 0.00769252
32.04 0.00742575
32.05 0.00710863
32.06 0.00674426
32.07 0.00633664
32.08 0.00589072
32.09 0.00541225
32.1 0.00490747
32.11 0.00438314
32.12 0.00384905
32.13 0.00331335
32.14 0.0027844
32.15 0.00227064
32.16 0.0017804
32.17 0.00132175
32.18 0.000902378
32.19 0.000532309
32.2 0.000217882
32.21 -3.74028e-05
32.22 -0.000229156
32.23 -0.000354054
32.24 -0.000409905
32.25 -0.000395703
32.26 -0.00031165
32.27 -0.000159155
32.28 6.50319e-05
32.29 0.000350468
32.3 0.000692093
32.31 0.00108389
32.32 0.00151903
32.33 0.00198994
32.34 0.00248854
32.35 0.00300633
32.36 0.00353467
32.37 0.00406376
32.38 0.00458453
32.39 0.0050888
32.4 0.00556887
32.41 0.00601775
32.42 0.00642924
32.43 0.0067981
32.44 0.00712013
32.45 0.00738815
32.46 0.00760348
32.47 0.00776652
32.48 0.00787812
32.49 0.00794035
32.5 0.00795642
32.51 0.0079306
32.52 0.00786815
32.53 0.0077746
32.54 0.0076565
32.55 0.0075234
32.56 0.0073831
32.57 0.00724354
32.58 0.00711267
32.59 0.00699818
32.6 0.00690738
32.61 0.00684701
32.62 0.00682571
32.63 0.00684785
32.64 0.0069161
32.65 0.00703314
32.66 0.00720044
32.67 0.00741817
32.68 0.00768518
32.69 0.00799905
32.7 0.00835638
32.71 0.00875459
32.72 0.00918371
32.73 0.00963645
32.74 0.0101047
32.75 0.0105795
32.76 0.0110517
32.77 0.0115115
32.78 0.0119491
32.79 0.0123529
32.8 0.0127122
32.81 0.0130199
32.82 0.0132679
32.83 0.0134488
32.84 0.0135568
32.85 0.0135867
32.86 0.013535
32.87 0.0133995
32.88 0.0131721
32.89 0.0128608
32.9 0.0124686
32.91 0.0119998
32.92 0.0114599
32.93 0.0108556
32.94 0.0101951
32.95 0.00948731
32.96 0.00874152
32.97 0.0079689
32.98 0.00718296
32.99 0.00639525
33 0.00561734
33.01 0.00486061
33.02 0.00413606
33.03 0.00345408
33.04 0.00282428
33.05 0.00226019
33.06 0.00176693
33.07 0.00134901
33.08 0.00101096
33.09 0.000755841
33.1 0.000585209
33.11 0.000499084
33.12 0.000495981
33.13 0.000574209
33.14 0.000733463
33.15 0.000961645
33.16 0.00125174
33.17 0.00159575
33.18 0.00198492
33.19 0.00240988
33.2 0.00286086
33.21 0.00332789
33.22 0.00380079
33.23 0.00426861
33.24 0.00472195
33.25 0.00515227
33.26 0.00555181
33.27 0.00591379
33.28 0.00623251
33.29 0.00650341
33.3 0.00672316
33.31 0.00688481
33.32 0.00699278
33.33 0.00704799
33.34 0.00705256
33.35 0.00700976
33.36 0.00692392
33.37 0.00680027
33.38 0.0066448
33.39 0.0064634
33.4 0.00626376
33.41 0.00605447
33.42 0.00584284
33.43 0.00563595
33.44 0.00544051
33.45 0.0052627
33.46 0.00510798
33.47 0.00498093
33.48 0.00488792
33.49 0.00482948
33.5 0.00480629
33.51 0.00481826
33.52 0.00486412
33.53 0.0049414
33.54 0.00504652
33.55 0.00517482
33.56 0.00532099
33.57 0.00547833
33.58 0.0056385
33.59 0.00579385
33.6 0.00593653
33.61 0.00605861
33.62 0.00615231
33.63 0.00621022
33.64 0.00622548
33.65 0.00618849
33.66 0.00609531
33.67 0.00594362
33.68 0.00573083
33.69 0.00545574
33.7 0.00511857
33.71 0.00472104
33.72 0.00426633
33.73 0.00375871
33.74 0.00320152
33.75 0.00260692
33.76 0.00198385
33.77 0.00134227
33.78 0.000693028
33.79 4.76041e-05
33.8 -0.000582077
33.81 -0.00118389
33.82 -0.0017432
33.83 -0.0022469
33.84 -0.00268579
33.85 -0.00304966
33.86 -0.00332931
33.87 -0.00351687
33.88 -0.00360591
33.89 -0.00359165
33.9 -0.00347104
33.91 -0.00323349
33.92 -0.00288898
33.93 -0.00244133
33.94 -0.00189564
33.95 -0.00125887
33.96 -0.000539761
33.97 0.00025133
33.98 0.00110257
33.99 0.00200192
34 0.00293439
34.01 0.00388216
34.02 0.0048297
34.03 0.00576134
34.04 0.00666153
34.05 0.00751516
34.06 0.0083078
34.07 0.009026
34.08 0.00965047
34.09 0.0101741
34.1 0.0105901
34.11 0.0108918
34.12 0.0110746
34.13 0.011136
34.14 0.0110755
34.15 0.0108951
34.16 0.0105968
34.17 0.0101812
34.18 0.00966574
34.19 0.00906072
34.2 0.00837815
34.21 0.00763134
34.22 0.00683477
34.23 0.0060037
34.24 0.00515397
34.25 0.00430246
34.26 0.00346708
34.27 0.00266332
34.28 0.00190592
34.29 0.00120858
34.3 0.000583677
34.31 4.20764e-05
34.32 -0.000407106
34.33 -0.000756445
34.34 -0.000991029
34.35 -0.00111767
34.36 -0.00113605
34.37 -0.00104805
34.38 -0.000857699
34.39 -0.000571043
34.4 -0.000196059
34.41 0.00025754
34.42 0.000780755
34.43 0.00135996
34.44 0.00197788
34.45 0.00262007
34.46 0.00327171
34.47 0.00391791
34.48 0.00454402
34.49 0.00513595
34.5 0.00568045
34.51 0.00615964
34.52 0.00656605
34.53 0.0068917
34.54 0.00712966
34.55 0.00727493
34.56 0.0073246
34.57 0.00727788
34.58 0.00713611
34.59 0.00690055
34.6 0.00657388
34.61 0.00617022
34.62 0.00569916
34.63 0.00517183
34.64 0.00460062
34.65 0.00399899
34.66 0.00338111
34.67 0.00276164
34.68 0.00215721
34.69 0.00158347
34.7 0.00105397
34.71 0.000581805
34.72 0.000178952
34.73 -0.000144022
34.74 -0.000378172
34.75 -0.000516378
34.76 -0.00055242
34.77 -0.000475518
34.78 -0.000293928
34.79 -9.56472e-06
34.8 0.000373457
34.81 0.000848887
34.82 0.00140846
34.83 0.00204202
34.84 0.00273775
34.85 0.00348407
34.86 0.00426426
34.87 0.00506067
34.88 0.0058572
34.89 0.00663755
34.9 0.00738552
34.91 0.00808533
34.92 0.00872197
34.93 0.00928146
34.94 0.00974214
34.95 0.0100999
34.96 0.0103464
34.97 0.010475
34.98 0.0104811
34.99 0.0103625
35 0.0101195
35.01 0.00975447
35.02 0.00926857
35.03 0.00866717
35.04 0.00796703
35.05 0.0071798
35.06 0.00631884
35.07 0.005399
35.08 0.0044363
35.09 0.00344766
35.1 0.00245059
35.11 0.0014649
35.12 0.000509503
35.13 -0.000398674
35.14 -0.00124327
35.15 -0.00200903
35.16 -0.00268206
35.17 -0.00325012
35.18 -0.0037028
35.19 -0.00402931
35.2 -0.00421564
35.21 -0.00426794
35.22 -0.00418527
35.23 -0.00396904
35.24 -0.00362304
35.25 -0.00315328
35.26 -0.00256793
35.27 -0.00187714
35.28 -0.00108824
35.29 -0.000218538
35.3 0.000713536
35.31 0.00169194
35.32 0.00269997
35.33 0.00372054
35.34 0.00473652
35.35 0.00573101
35.36 0.00668747
35.37 0.00758425
35.38 0.00841087
35.39 0.00915454
35.4 0.00980404
35.41 0.0103499
35.42 0.0107845
35.43 0.0111022
35.44 0.0112994
35.45 0.0113695
35.46 0.0113122
35.47 0.0111367
35.48 0.0108478
35.49 0.0104521
35.5 0.00995775
35.51 0.00937422
35.52 0.0087122
35.53 0.00798333
35.54 0.00719658
35.55 0.00636979
35.56 0.00551672
35.57 0.00465039
35.58 0.00378353
35.59 0.00292836
35.6 0.00209639
35.61 0.00129823
35.62 0.000544904
35.63 -0.00015228
35.64 -0.000789498
35.65 -0.00136126
35.66 -0.00186344
35.67 -0.00229331
35.68 -0.00264948
35.69 -0.00293186
35.7 -0.00314159
35.71 -0.00327644
35.72 -0.00334284
35.73 -0.00334705
35.74 -0.00329401
35.75 -0.00318917
35.76 -0.00303835
35.77 -0.00284753
35.78 -0.00262275
35.79 -0.00236966
35.8 -0.00209286
35.81 -0.00179978
35.82 -0.0014951
35.83 -0.0011829
35.84 -0.000866638
35.85 -0.000549074
35.86 -0.000232288
35.87 8.2331e-05
35.88 0.000393894
35.89 0.000702356
35.9 0.00100838
35.91 0.00131292
35.92 0.00161727
35.93 0.00192296
35.94 0.00223161
35.95 0.00254486
35.96 0.0028642
35.97 0.00319167
35.98 0.00352756
35.99 0.00387223
36 0.00422552
36.01 0.00458672
36.02 0.00495443
36.03 0.00532666
36.04 0.00570073
36.05 0.00607315
36.06 0.00643936
36.07 0.00679498
36.08 0.00713507
36.09 0.00745437
36.1 0.00774747
36.11 0.00800887
36.12 0.00823315
36.13 0.00841513
36.14 0.00854614
36.15 0.00862415
36.16 0.00864664
36.17 0.00861098
36.18 0.00851547
36.19 0.00835942
36.2 0.00814327
36.21 0.00786862
36.22 0.00753723
36.23 0.00715078
36.24 0.00671882
36.25 0.00624786
36.26 0.00574543
36.27 0.00521995
36.28 0.00468064
36.29 0.00413732
36.3 0.00360023
36.31 0.00308154
36.32 0.0025926
36.33 0.00214312
36.34 0.00174299
36.35 0.00140146
36.36 0.00112695
36.37 0.000926831
36.38 0.000807272
36.39 0.000773439
36.4 0.000836444
36.41 0.000989798
36.42 0.0012331
36.43 0.0015642
36.44 0.00197924
36.45 0.00247264
36.46 0.00303719
36.47 0.00366415
36.48 0.00434514
36.49 0.00506751
36.5 0.00581605
36.51 0.00657737
36.52 0.00733757
36.53 0.00808249
36.54 0.00879797
36.55 0.00947011
36.56 0.0100856
36.57 0.0106251
36.58 0.0110814
36.59 0.0114454
36.6 0.0117089
36.61 0.0118652
36.62 0.0119098
36.63 0.0118401
36.64 0.0116555
36.65 0.0113544
36.66 0.0109371
36.67 0.0104173
36.68 0.00980304
36.69 0.00910448
36.7 0.00833321
36.71 0.00750235
36.72 0.00662621
36.73 0.00572005
36.74 0.0048
36.75 0.00388472
36.76 0.0029909
36.77 0.00213459
36.78 0.00133121
36.79 0.000595284
36.8 -5.9877e-05
36.81 -0.000622392
36.82 -0.00108068
36.83 -0.00141802
36.84 -0.00163723
36.85 -0.00173472
36.86 -0.00170921
36.87 -0.00156167
36.88 -0.00129539
36.89 -0.000915863
36.9 -0.000430714
36.91 0.000154815
36.92 0.000826794
36.93 0.00156786
36.94 0.00236343
36.95 0.00319793
36.96 0.0040551
36.97 0.0049183
36.98 0.00577086
36.99 0.00659632
37 0.00737355
37.01 0.00809033
37.02 0.00873333
37.03 0.00929056
37.04 0.00975177
37.05 0.0101086
37.06 0.0103548
37.07 0.0104863
37.08 0.0104969
37.09 0.010385
37.1 0.0101605
37.11 0.00982887
37.12 0.00939744
37.13 0.00887558
37.14 0.00827432
37.15 0.00760616
37.16 0.0068848
37.17 0.00612316
37.18 0.00534028
37.19 0.00455248
37.2 0.00377536
37.21 0.00302411
37.22 0.00231326
37.23 0.00165636
37.24 0.00106577
37.25 0.000554139
37.26 0.00013606
37.27 -0.000187401
37.28 -0.000411374
37.29 -0.000533084
37.3 -0.000551892
37.31 -0.00046929
37.32 -0.000288853
37.33 -1.61513e-05
37.34 0.000345913
37.35 0.000784744
37.36 0.00128651
37.37 0.00183906
37.38 0.00242931
37.39 0.00304349
37.4 0.0036675
37.41 0.00428711
37.42 0.00488818
37.43 0.0054533
37.44 0.00597184
37.45 0.00643247
37.46 0.00682515
37.47 0.00714143
37.48 0.00737451
37.49 0.00751947
37.5 0.00757327
37.51 0.0075308
37.52 0.00739289
37.53 0.00716747
37.54 0.00685971
37.55 0.00647651
37.56 0.00602633
37.57 0.00551899
37.58 0.00496549
37.59 0.0043777
37.6 0.00376745
37.61 0.00315045
37.62 0.00253989
37.63 0.00194854
37.64 0.00138862
37.65 0.000871577
37.66 0.000407835
37.67 6.59563e-06
37.68 -0.00032214
37.69 -0.000568874
37.7 -0.00073421
37.71 -0.000815876
37.72 -0.00081344
37.73 -0.000728296
37.74 -0.000563623
37.75 -0.000324301
37.76 -1.67889e-05
37.77 0.000354513
37.78 0.000776797
37.79 0.00123816
37.8 0.00172751
37.81 0.00223329
37.82 0.00274373
37.83 0.0032471
37.84 0.00373199
37.85 0.00418703
37.86 0.00459862
37.87 0.00496056
37.88 0.00526545
37.89 0.00550734
37.9 0.00568187
37.91 0.00578634
37.92 0.0058198
37.93 0.00578305
37.94 0.00567528
37.95 0.0055022
37.96 0.00527273
37.97 0.00499442
37.98 0.004676
37.99 0.00432723
38 0.00395868
38.01 0.00358143
38.02 0.00320686
38.03 0.00284869
38.04 0.0025176
38.05 0.002224
38.06 0.00197749
38.07 0.00178657
38.08 0.00165849
38.09 0.00159898
38.1 0.00161218
38.11 0.00170331
38.12 0.00187425
38.13 0.00211896
38.14 0.00243382
38.15 0.00281344
38.16 0.00325073
38.17 0.00373699
38.18 0.00426218
38.19 0.00481502
38.2 0.00538346
38.21 0.00595232
38.22 0.00650796
38.23 0.0070369
38.24 0.00752591
38.25 0.00796229
38.26 0.00833415
38.27 0.00863071
38.28 0.0088405
38.29 0.00895026
38.3 0.00896064
38.31 0.00886798
38.32 0.00867075
38.33 0.00836956
38.34 0.00796722
38.35 0.00746873
38.36 0.00688121
38.37 0.00620957
38.38 0.00546853
38.39 0.00467369
38.4 0.00383945
38.41 0.00298126
38.42 0.0021154
38.43 0.00125864
38.44 0.000427918
38.45 -0.00035964
38.46 -0.00108141
38.47 -0.00172625
38.48 -0.00228026
38.49 -0.00273105
38.5 -0.00306804
38.51 -0.00328268
38.52 -0.00336863
38.53 -0.00332191
38.54 -0.00313498
38.55 -0.00280891
38.56 -0.00235445
38.57 -0.00177827
38.58 -0.00108941
38.59 -0.000299132
38.6 0.000579279
38.61 0.00153075
38.62 0.00253869
38.63 0.00358699
38.64 0.00465233
38.65 0.0057151
38.66 0.006756
38.67 0.00775604
38.68 0.00869688
38.69 0.00956122
38.7 0.0103331
38.71 0.0109947
38.72 0.0115283
38.73 0.0119315
38.74 0.0121969
38.75 0.0123202
38.76 0.0122992
38.77 0.012135
38.78 0.0118308
38.79 0.011393
38.8 0.0108221
38.81 0.0101363
38.82 0.00935218
38.83 0.00848528
38.84 0.00755249
38.85 0.00657198
38.86 0.00556274
38.87 0.00454427
38.88 0.00353661
38.89 0.00256301
38.9 0.00164091
38.91 0.000787727
38.92 1.94822e-05
38.93 -0.000649509
38.94 -0.0012069
38.95 -0.00164255
38.96 -0.00194868
38.97 -0.00211262
38.98 -0.00213357
38.99 -0.00201763
39 -0.00176801
39.01 -0.00139044
39.02 -0.000893056
39.03 -0.000286188
39.04 0.000417836
39.05 0.00120495
39.06 0.0020644
39.07 0.00297185
39.08 0.00390968
39.09 0.00486001
39.1 0.00580496
39.11 0.00672703
39.12 0.00760942
39.13 0.00843637
39.14 0.00919027
39.15 0.00985547
39.16 0.0104255
39.17 0.0108921
39.18 0.0112489
39.19 0.0114922
39.2 0.0116206
39.21 0.0116349
39.22 0.0115383
39.23 0.0113289
39.24 0.0110215
39.25 0.0106278
39.26 0.0101592
39.27 0.00962858
39.28 0.00904977
39.29 0.00843735
39.3 0.00780635
39.31 0.00717217
39.32 0.00655183
39.33 0.00595957
39.34 0.00540859
39.35 0.0049109
39.36 0.00447702
39.37 0.00411581
39.38 0.00383428
39.39 0.00363745
39.4 0.00353374
39.41 0.00352112
39.42 0.00359493
39.43 0.00375127
39.44 0.00398431
39.45 0.00428639
39.46 0.00464823
39.47 0.00505914
39.48 0.00550746
39.49 0.0059811
39.5 0.00646357
39.51 0.00694127
39.52 0.00740073
39.53 0.00782887
39.54 0.00821335
39.55 0.00854284
39.56 0.00880724
39.57 0.00899421
39.58 0.0090961
39.59 0.00911192
39.6 0.00903911
39.61 0.00887717
39.62 0.0086277
39.63 0.00829436
39.64 0.00788279
39.65 0.00740054
39.66 0.00685249
39.67 0.00625536
39.68 0.005622
39.69 0.00496571
39.7 0.00430047
39.71 0.00364064
39.72 0.00300063
39.73 0.00239459
39.74 0.00183803
39.75 0.00134696
39.76 0.000929476
39.77 0.000595348
39.78 0.000352621
39.79 0.000207451
39.8 0.000163947
39.81 0.00022407
39.82 0.000387568
39.83 0.000658734
39.84 0.0010274
39.85 0.00148389
39.86 0.00201897
39.87 0.00262169
39.88 0.00327951
39.89 0.00397861
39.9 0.00470416
39.91 0.00544052
39.92 0.00616974
39.93 0.00687523
39.94 0.00754139
39.95 0.00815336
39.96 0.00869727
39.97 0.00916059
39.98 0.00953235
39.99 0.00980342
40 0.0099605
40.01 0.01
40.02 0.00992435
40.03 0.00973375
40.04 0.00943103
40.05 0.00902132
40.06 0.00851202
40.07 0.00791266
40.08 0.00723474
40.09 0.0064867
40.1 0.00569073
40.11 0.00486294
40.12 0.00402016
40.13 0.00317965
40.14 0.00235877
40.15 0.00157455
40.16 0.00084341
40.17 0.000184071
40.18 -0.000386486
40.19 -0.000860052
40.2 -0.00122646
40.21 -0.0014777
40.22 -0.00160808
40.23 -0.00161439
40.24 -0.00149593
40.25 -0.00125459
40.26 -0.000886024
40.27 -0.000405626
40.28 0.000174974
40.29 0.00084389
40.3 0.00158735
40.31 0.00238998
40.32 0.00323508
40.33 0.00410499
40.34 0.0049811
40.35 0.00584225
40.36 0.00666984
40.37 0.00744614
40.38 0.00815438
40.39 0.00877908
40.4 0.00930642
40.41 0.00972446
40.42 0.0100234
40.43 0.0101877
40.44 0.0102162
40.45 0.0101114
40.46 0.00987453
40.47 0.00950944
40.48 0.00902265
40.49 0.00842322
40.5 0.00772259
40.51 0.00693374
40.52 0.0060682
40.53 0.00515073
40.54 0.00419988
40.55 0.00323499
40.56 0.00227584
40.57 0.00134224
40.58 0.00045366
40.59 -0.000371195
40.6 -0.00111004
40.61 -0.00174495
40.62 -0.00226596
40.63 -0.00266135
40.64 -0.00292179
40.65 -0.00304053
40.66 -0.00301351
40.67 -0.00283951
40.68 -0.00252013
40.69 -0.00204813
40.7 -0.00144296
40.71 -0.000716015
40.72 0.000119987
40.73 0.0010502
40.74 0.00205794
40.75 0.00312499
40.76 0.00423198
40.77 0.00535862
40.78 0.00648188
40.79 0.00758012
40.8 0.00863325
40.81 0.00962205
40.82 0.0105285
40.83 0.0113362
40.84 0.0120306
40.85 0.0125993
40.86 0.013022
40.87 0.0132974
40.88 0.0134247
40.89 0.0134025
40.9 0.0132322
40.91 0.0129182
40.92 0.0124672
40.93 0.0118888
40.94 0.0111929
40.95 0.0103887
40.96 0.00950108
40.97 0.00854729
40.98 0.00754571
40.99 0.00651536
41 0.00547558
41.01 0.00444559
41.02 0.00344416
41.03 0.00249282
41.04 0.00160933
41.05 0.000806671
41.06 9.78683e-05
41.07 -0.000506161
41.08 -0.000996784
41.09 -0.00136781
41.1 -0.00161557
41.11 -0.00173889
41.12 -0.00172826
41.13 -0.00159996
41.14 -0.00136097
41.15 -0.00102051
41.16 -0.000589773
41.17 -8.1725e-05
41.18 0.00048921
41.19 0.00110745
41.2 0.0017571
41.21 0.00241937
41.22 0.00307573
41.23 0.00370953
41.24 0.00430479
41.25 0.00484653
41.26 0.0053211
41.27 0.0057164
41.28 0.00602217
41.29 0.00622189
41.3 0.00631568
41.31 0.00630182
41.32 0.00617953
41.33 0.00595041
41.34 0.00561841
41.35 0.00518972
41.36 0.00467266
41.37 0.00407585
41.38 0.00340977
41.39 0.00269349
41.4 0.0019418
41.41 0.00117029
41.42 0.000394998
41.43 -0.000367917
41.44 -0.00110251
41.45 -0.00179337
41.46 -0.00242134
41.47 -0.00297376
41.48 -0.00344087
41.49 -0.00381288
41.5 -0.00408191
41.51 -0.0042422
41.52 -0.00429018
41.53 -0.00422459
41.54 -0.00404545
41.55 -0.00374835
41.56 -0.0033489
41.57 -0.00285522
41.58 -0.00227732
41.59 -0.00162691
41.6 -0.000917144
41.61 -0.00016238
41.62 0.000622126
41.63 0.00142037
41.64 0.00221412
41.65 0.0029868
41.66 0.0037228
41.67 0.00440729
41.68 0.00502646
41.69 0.00556779
41.7 0.0060203
41.71 0.00637478
41.72 0.00661416
41.73 0.0067417
41.74 0.00675547
41.75 0.00665505
41.76 0.00644223
41.77 0.00612089
41.78 0.00569695
41.79 0.00517826
41.8 0.00457194
41.81 0.00388845
41.82 0.00314558
41.83 0.00235694
41.84 0.00153685
41.85 0.000699988
41.86 -0.000138817
41.87 -0.000964936
41.88 -0.0017642
41.89 -0.00251934
41.9 -0.00321889
41.91 -0.00385286
41.92 -0.00441185
41.93 -0.00488808
41.94 -0.00527553
41.95 -0.00557003
41.96 -0.00576932
41.97 -0.00587139
41.98 -0.0058725
41.99 -0.00578377
42 -0.0056106
42.01 -0.00535994
42.02 -0.00504006
42.03 -0.00466041
42.04 -0.00423132
42.05 -0.00376386
42.06 -0.00326865
42.07 -0.00275925
42.08 -0.00224814
42.09 -0.00174648
42.1 -0.00126476
42.11 -0.000812673
42.12 -0.000398856
42.13 -3.07537e-05
42.14 0.000285432
42.15 0.000539635
42.16 0.000734007
42.17 0.000867382
42.18 0.000940169
42.19 0.000954304
42.2 0.000913184
42.21 0.000821559
42.22 0.000685398
42.23 0.000510523
42.24 0.000305563
42.25 8.11654e-05
42.26 -0.000153569
42.27 -0.000389364
42.28 -0.000616992
42.29 -0.000827501
42.3 -0.00101243
42.31 -0.00116401
42.32 -0.00127163
42.33 -0.0013318
42.34 -0.00134073
42.35 -0.00129541
42.36 -0.00119422
42.37 -0.00103701
42.38 -0.000825057
42.39 -0.000561081
42.4 -0.000248094
42.41 0.000109603
42.42 0.000501945
42.43 0.000921129
42.44 0.00135854
42.45 0.00180493
42.46 0.00225064
42.47 0.00268581
42.48 0.00310057
42.49 0.00348273
42.5 0.00382329
42.51 0.00411482
42.52 0.0043499
42.53 0.00452216
42.54 0.00462644
42.55 0.00465891
42.56 0.00461715
42.57 0.00449949
42.58 0.00430117
42.59 0.00403097
42.6 0.00369277
42.61 0.00329184
42.62 0.00283469
42.63 0.00232898
42.64 0.00178333
42.65 0.00120718
42.66 0.000610058
42.67 3.82433e-06
42.68 -0.00060008
42.69 -0.00119119
42.7 -0.00175938
42.71 -0.00229505
42.72 -0.00278936
42.73 -0.00323441
42.74 -0.00362336
42.75 -0.00394477
42.76 -0.00419943
42.77 -0.00438523
42.78 -0.00450122
42.79 -0.00454794
42.8 -0.00452744
42.81 -0.00444317
42.82 -0.00429995
42.83 -0.0041023
42.84 -0.00385712
42.85 -0.00357582
42.86 -0.00326736
42.87 -0.00294118
42.88 -0.002607
42.89 -0.00227457
42.9 -0.00195351
42.91 -0.00165299
42.92 -0.00138435
42.93 -0.00115448
42.94 -0.000969297
42.95 -0.00083417
42.96 -0.000753161
42.97 -0.000728928
42.98 -0.000762662
42.99 -0.000854051
43 -0.00100224
43.01 -0.00120647
43.02 -0.0014575
43.03 -0.00174905
43.04 -0.0020737
43.05 -0.00242306
43.06 -0.00278795
43.07 -0.00315859
43.08 -0.00352485
43.09 -0.00387502
43.1 -0.00419808
43.11 -0.00448492
43.12 -0.00472646
43.13 -0.00491447
43.14 -0.00504177
43.15 -0.00510241
43.16 -0.00509183
43.17 -0.00500675
43.18 -0.00483904
43.19 -0.0045962
43.2 -0.00428056
43.21 -0.00389616
43.22 -0.00344869
43.23 -0.00294535
43.24 -0.00239479
43.25 -0.00180692
43.26 -0.00119214
43.27 -0.000563759
43.28 6.42969e-05
43.29 0.000679081
43.3 0.00126758
43.31 0.00181697
43.32 0.00231491
43.33 0.00274976
43.34 0.0031109
43.35 0.00338139
43.36 0.00355851
43.37 0.00363732
43.38 0.00361362
43.39 0.00348515
43.4 0.00325161
43.41 0.00291474
43.42 0.00247831
43.43 0.00194579
43.44 0.00132239
43.45 0.000624255
43.46 -0.000137168
43.47 -0.000949055
43.48 -0.00179742
43.49 -0.00266736
43.5 -0.00354335
43.51 -0.00440948
43.52 -0.00524702
43.53 -0.00603963
43.54 -0.00677307
43.55 -0.00743328
43.56 -0.00800733
43.57 -0.00848374
43.58 -0.00885267
43.59 -0.00910614
43.6 -0.00923676
43.61 -0.0092315
43.62 -0.00909948
43.63 -0.00884188
43.64 -0.00846218
43.65 -0.00796605
43.66 -0.00736131
43.67 -0.00665774
43.68 -0.00586698
43.69 -0.00499929
43.7 -0.00407181
43.71 -0.00310367
43.72 -0.00211164
43.73 -0.00111293
43.74 -0.000124911
43.75 0.000835193
43.76 0.00175061
43.77 0.00260534
43.78 0.00337634
43.79 0.00405559
43.8 0.00463173
43.81 0.00509488
43.82 0.00543715
43.83 0.00565276
43.84 0.00573815
43.85 0.00569202
43.86 0.00551087
43.87 0.00519548
43.88 0.00475947
43.89 0.00421076
43.9 0.00355912
43.91 0.00281601
43.92 0.00199435
43.93 0.00110825
43.94 0.000172818
43.95 -0.000797481
43.96 -0.00178305
43.97 -0.00276705
43.98 -0.00373355
43.99 -0.00466719
44 -0.00555341
44.01 -0.00637875
44.02 -0.00713103
44.03 -0.00779773
44.04 -0.00836392
44.05 -0.00882923
44.06 -0.00918879
44.07 -0.00943973
44.08 -0.00958116
44.09 -0.00961414
44.1 -0.00954165
44.11 -0.00936848
44.12 -0.00909603
44.13 -0.00873565
44.14 -0.00830029
44.15 -0.00780068
44.16 -0.00724842
44.17 -0.00665573
44.18 -0.00603519
44.19 -0.00539954
44.2 -0.00476145
44.21 -0.00413518
44.22 -0.00353231
44.23 -0.00296355
44.24 -0.00243857
44.25 -0.0019659
44.26 -0.00155274
44.27 -0.00120489
44.28 -0.000926683
44.29 -0.000724101
44.3 -0.000598949
44.31 -0.000546907
44.32 -0.000565935
44.33 -0.000652636
44.34 -0.000802375
44.35 -0.00100941
44.36 -0.00126703
44.37 -0.00156775
44.38 -0.00190567
44.39 -0.00226899
44.4 -0.00264855
44.41 -0.00303564
44.42 -0.00342175
44.43 -0.00379874
44.44 -0.00415904
44.45 -0.00449576
44.46 -0.00480187
44.47 -0.00507041
44.48 -0.00529958
44.49 -0.00548659
44.5 -0.00562979
44.51 -0.00572866
44.52 -0.00578375
44.53 -0.00579667
44.54 -0.00577001
44.55 -0.00570511
44.56 -0.00560822
44.57 -0.00548538
44.58 -0.00534211
44.59 -0.00518427
44.6 -0.00501793
44.61 -0.00484918
44.62 -0.00468397
44.63 -0.00452823
44.64 -0.00438877
44.65 -0.00426942
44.66 -0.00417419
44.67 -0.00410633
44.68 -0.00406831
44.69 -0.0040617
44.7 -0.00408724
44.71 -0.00414474
44.72 -0.00423466
44.73 -0.00435448
44.74 -0.00450006
44.75 -0.00466789
44.76 -0.00485388
44.77 -0.00505343
44.78 -0.00526164
44.79 -0.00547333
44.8 -0.00568324
44.81 -0.00588504
44.82 -0.00607392
44.83 -0.00624521
44.84 -0.00639468
44.85 -0.00651863
44.86 -0.00661399
44.87 -0.00667843
44.88 -0.00671035
44.89 -0.0067078
44.9 -0.00667021
44.91 -0.0066006
44.92 -0.00650089
44.93 -0.00637371
44.94 -0.00622242
44.95 -0.00605098
44.96 -0.00586389
44.97 -0.00566604
44.98 -0.00546266
44.99 -0.00525997
45 -0.00506349
45.01 -0.00487853
45.02 -0.00471015
45.03 -0.00456304
45.04 -0.0044414
45.05 -0.00434886
45.06 -0.00428907
45.07 -0.0042662
45.08 -0.00427903
45.09 -0.00432789
45.1 -0.00441222
45.11 -0.00453061
45.12 -0.00468079
45.13 -0.00485973
45.14 -0.00506362
45.15 -0.00528896
45.16 -0.00552959
45.17 -0.00577932
45.18 -0.00603233
45.19 -0.00628268
45.2 -0.0065244
45.21 -0.00675165
45.22 -0.00695882
45.23 -0.00714059
45.24 -0.00728933
45.25 -0.00740351
45.26 -0.00748
45.27 -0.00751654
45.28 -0.00751174
45.29 -0.00746517
45.3 -0.00737737
45.31 -0.00724987
45.32 -0.00708362
45.33 -0.00688236
45.34 -0.00665235
45.35 -0.00639874
45.36 -0.00612734
45.37 -0.00584444
45.38 -0.00555675
45.39 -0.0052712
45.4 -0.00499481
45.41 -0.00473649
45.42 -0.00450234
45.43 -0.00429845
45.44 -0.00413053
45.45 -0.00400359
45.46 -0.00392187
45.47 -0.00388866
45.48 -0.00390627
45.49 -0.00397743
45.5 -0.0041041
45.51 -0.00428157
45.52 -0.00450744
45.53 -0.00477824
45.54 -0.00508944
45.55 -0.00543557
45.56 -0.00581031
45.57 -0.00620658
45.58 -0.00661712
45.59 -0.00703233
45.6 -0.00744344
45.61 -0.00784197
45.62 -0.00821953
45.63 -0.00856804
45.64 -0.00887986
45.65 -0.00914801
45.66 -0.00936551
45.67 -0.00952289
45.68 -0.00962028
45.69 -0.0096549
45.7 -0.0096252
45.71 -0.00953093
45.72 -0.00937319
45.73 -0.00915441
45.74 -0.00887833
45.75 -0.00854751
45.76 -0.0081696
45.77 -0.00775423
45.78 -0.00730978
45.79 -0.0068454
45.8 -0.00637081
45.81 -0.00589614
45.82 -0.00543176
45.83 -0.00498805
45.84 -0.00457896
45.85 -0.00421224
45.86 -0.00389689
45.87 -0.00364116
45.88 -0.00345237
45.89 -0.00333666
45.9 -0.00329895
45.91 -0.00334278
45.92 -0.00347337
45.93 -0.00369289
45.94 -0.00399519
45.95 -0.00437743
45.96 -0.00483525
45.97 -0.00536285
45.98 -0.0059531
45.99 -0.00659763
46 -0.00728699
46.01 -0.00801256
46.02 -0.00876002
46.03 -0.00951696
46.04 -0.0102713
46.05 -0.0110108
46.06 -0.0117235
46.07 -0.0123976
46.08 -0.0130219
46.09 -0.0135845
46.1 -0.0140712
46.11 -0.0144785
46.12 -0.0147993
46.13 -0.0150283
46.14 -0.0151612
46.15 -0.0151956
46.16 -0.0151306
46.17 -0.0149667
46.18 -0.0147005
46.19 -0.014339
46.2 -0.0138908
46.21 -0.0133627
46.22 -0.0127627
46.23 -0.0120998
46.24 -0.0113837
46.25 -0.0106251
46.26 -0.0098347
46.27 -0.00902339
46.28 -0.00820518
46.29 -0.00739129
46.3 -0.00659263
46.31 -0.00581954
46.32 -0.00508171
46.33 -0.00438793
46.34 -0.00374603
46.35 -0.00316564
46.36 -0.00265306
46.37 -0.00220931
46.38 -0.00183701
46.39 -0.00153747
46.4 -0.00131066
46.41 -0.0011553
46.42 -0.00106889
46.43 -0.00104782
46.44 -0.0010921
46.45 -0.00119103
46.46 -0.00133756
46.47 -0.00152468
46.48 -0.00174497
46.49 -0.00199074
46.5 -0.00225424
46.51 -0.00252781
46.52 -0.00280387
46.53 -0.00307447
46.54 -0.00333314
46.55 -0.00357421
46.56 -0.00379274
46.57 -0.00398472
46.58 -0.00414701
46.59 -0.00427747
46.6 -0.00437492
46.61 -0.00443695
46.62 -0.00446599
46.63 -0.0044648
46.64 -0.00443607
46.65 -0.00438328
46.66 -0.00431053
46.67 -0.00422243
46.68 -0.00412402
46.69 -0.00402059
46.7 -0.00391817
46.71 -0.00382247
46.72 -0.0037387
46.73 -0.00367177
46.74 -0.00362613
46.75 -0.00360571
46.76 -0.00361379
46.77 -0.0036529
46.78 -0.00372664
46.79 -0.00383547
46.8 -0.00397789
46.81 -0.00415285
46.82 -0.00435844
46.83 -0.00459193
46.84 -0.00484978
46.85 -0.00512779
46.86 -0.00542109
46.87 -0.00572472
46.88 -0.00603147
46.89 -0.00633523
46.9 -0.00662976
46.91 -0.00690884
46.92 -0.0071664
46.93 -0.00739664
46.94 -0.00759415
46.95 -0.00775243
46.96 -0.00786602
46.97 -0.00793374
46.98 -0.00795305
46.99 -0.00792232
47 -0.00784081
47.01 -0.00770876
47.02 -0.00752738
47.03 -0.0072988
47.04 -0.00702295
47.05 -0.00670692
47.06 -0.00635634
47.07 -0.00597679
47.08 -0.0055744
47.09 -0.00515581
47.1 -0.00472799
47.11 -0.00429812
47.12 -0.00387378
47.13 -0.00346359
47.14 -0.00307407
47.15 -0.00271184
47.16 -0.00238306
47.17 -0.00209329
47.18 -0.0018474
47.19 -0.00164949
47.2 -0.00150279
47.21 -0.00141303
47.22 -0.00138004
47.23 -0.0014022
47.24 -0.00147872
47.25 -0.00160781
47.26 -0.00178678
47.27 -0.00201206
47.28 -0.00227927
47.29 -0.00258356
47.3 -0.00292112
47.31 -0.00328249
47.32 -0.00366099
47.33 -0.00404971
47.34 -0.00444164
47.35 -0.00482979
47.36 -0.00520731
47.37 -0.00556762
47.38 -0.00590318
47.39 -0.00620757
47.4 -0.00647703
47.41 -0.00670731
47.42 -0.00689495
47.43 -0.00703732
47.44 -0.00713263
47.45 -0.00717998
47.46 -0.00717938
47.47 -0.0071278
47.48 -0.0070309
47.49 -0.00689179
47.5 -0.00671392
47.51 -0.0065014
47.52 -0.0062589
47.53 -0.00599159
47.54 -0.00570501
47.55 -0.00540474
47.56 -0.00509723
47.57 -0.00478927
47.58 -0.00448679
47.59 -0.00419551
47.6 -0.00392084
47.61 -0.00366781
47.62 -0.00344094
47.63 -0.00324423
47.64 -0.00308356
47.65 -0.00296024
47.66 -0.00287524
47.67 -0.0028296
47.68 -0.00282359
47.69 -0.00285677
47.7 -0.00292792
47.71 -0.00303515
47.72 -0.00317639
47.73 -0.00335003
47.74 -0.00354963
47.75 -0.00377097
47.76 -0.00400941
47.77 -0.00426007
47.78 -0.00451786
47.79 -0.0047776
47.8 -0.0050341
47.81 -0.00528151
47.82 -0.00551443
47.83 -0.00572859
47.84 -0.00591969
47.85 -0.00608385
47.86 -0.00621764
47.87 -0.00631815
47.88 -0.00638303
47.89 -0.0064105
47.9 -0.00639569
47.91 -0.00634174
47.92 -0.00624885
47.93 -0.00611781
47.94 -0.00595001
47.95 -0.00574736
47.96 -0.00551231
47.97 -0.00524776
47.98 -0.00495617
47.99 -0.00464137
48 -0.00430884
48.01 -0.0039629
48.02 -0.00360801
48.03 -0.00324878
48.04 -0.00288984
48.05 -0.00253581
48.06 -0.00219126
48.07 -0.00186206
48.08 -0.00155196
48.09 -0.00126472
48.1 -0.00100403
48.11 -0.000773286
48.12 -0.000575518
48.13 -0.000413394
48.14 -0.000289183
48.15 -0.000205706
48.16 -0.000166452
48.17 -0.00016946
48.18 -0.000215172
48.19 -0.000303587
48.2 -0.000434267
48.21 -0.000606347
48.22 -0.000818544
48.23 -0.00106917
48.24 -0.00135828
48.25 -0.00168197
48.26 -0.00203622
48.27 -0.00241784
48.28 -0.00282337
48.29 -0.00324904
48.3 -0.00369089
48.31 -0.00414471
48.32 -0.00460618
48.33 -0.00507057
48.34 -0.00553269
48.35 -0.00598784
48.36 -0.00643134
48.37 -0.00685853
48.38 -0.00726482
48.39 -0.00764571
48.4 -0.0079969
48.41 -0.00831245
48.42 -0.00858805
48.43 -0.00882179
48.44 -0.00901054
48.45 -0.00915152
48.46 -0.00924241
48.47 -0.00928136
48.48 -0.00926704
48.49 -0.00919864
48.5 -0.00907126
48.51 -0.00888971
48.52 -0.00865553
48.53 -0.00837048
48.54 -0.00803696
48.55 -0.00765797
48.56 -0.00723713
48.57 -0.00677865
48.58 -0.00628642
48.59 -0.00576555
48.6 -0.00522394
48.61 -0.00466783
48.62 -0.00410383
48.63 -0.00353881
48.64 -0.00297982
48.65 -0.00243404
48.66 -0.00190863
48.67 -0.00141318
48.68 -0.000953988
48.69 -0.000536994
48.7 -0.000168427
48.71 0.000145956
48.72 0.000400955
48.73 0.000592007
48.74 0.000715263
48.75 0.00076647
48.76 0.000738725
48.77 0.000636494
48.78 0.000459596
48.79 0.000208807
48.8 -0.000114129
48.81 -0.000506505
48.82 -0.000964666
48.83 -0.00148404
48.84 -0.00206193
48.85 -0.00269028
48.86 -0.00335978
48.87 -0.00406261
48.88 -0.00479042
48.89 -0.00553439
48.9 -0.00628537
48.91 -0.00703399
48.92 -0.00777077
48.93 -0.00848337
48.94 -0.00916381
48.95 -0.00980312
48.96 -0.0103928
48.97 -0.0109247
48.98 -0.0113916
48.99 -0.0117868
49 -0.0121045
49.01 -0.0123362
49.02 -0.0124765
49.03 -0.0125271
49.04 -0.0124865
49.05 -0.0123541
49.06 -0.0121305
49.07 -0.0118173
49.08 -0.0114171
49.09 -0.0109338
49.1 -0.0103662
49.11 -0.00972566
49.12 -0.00901989
49.13 -0.00825625
49.14 -0.00744271
49.15 -0.00658775
49.16 -0.00570027
49.17 -0.00478947
49.18 -0.00386466
49.19 -0.00293617
49.2 -0.00201429
49.21 -0.00110826
49.22 -0.000227029
49.23 0.000620821
49.24 0.00142718
49.25 0.00218451
49.26 0.00288586
49.27 0.00352068
49.28 0.00408507
49.29 0.00457645
49.3 0.00499116
49.31 0.00532636
49.32 0.00558012
49.33 0.0057513
49.34 0.00583965
49.35 0.005845
49.36 0.00576271
49.37 0.00560205
49.38 0.005366
49.39 0.00505816
49.4 0.0046827
49.41 0.00424435
49.42 0.00374826
49.43 0.0032
49.44 0.00260354
49.45 0.00196598
49.46 0.00129582
49.47 0.000599576
49.48 -0.00011616
49.49 -0.000844796
49.5 -0.00157979
49.51 -0.00231469
49.52 -0.00304321
49.53 -0.00375763
49.54 -0.00445262
49.55 -0.00512274
49.56 -0.00576276
49.57 -0.00636778
49.58 -0.00693327
49.59 -0.00745509
49.6 -0.00792948
49.61 -0.00835138
49.62 -0.00871604
49.63 -0.00902431
49.64 -0.00927433
49.65 -0.00946469
49.66 -0.00959449
49.67 -0.00966329
49.68 -0.00967115
49.69 -0.00961861
49.7 -0.00950251
49.71 -0.00932757
49.72 -0.00909718
49.73 -0.00881392
49.74 -0.00848078
49.75 -0.00810119
49.76 -0.007679
49.77 -0.00721844
49.78 -0.00672359
49.79 -0.00619818
49.8 -0.00565
49.81 -0.00508453
49.82 -0.00450741
49.83 -0.00392445
49.84 -0.00334148
49.85 -0.00276437
49.86 -0.00219896
49.87 -0.00165228
49.88 -0.00113017
49.89 -0.000637184
49.9 -0.000178255
49.91 0.000242068
49.92 0.000619673
49.93 0.000950937
49.94 0.00123278
49.95 0.00146262
49.96 0.00163358
49.97 0.00174945
49.98 0.00180987
49.99 0.00181518
50 0.0017664
50.01 0.00166525
50.02 0.00151414
50.03 0.00131611
50.04 0.00107321
50.05 0.000789774
50.06 0.00047293
50.07 0.000127942
50.08 -0.00023957
50.09 -0.000623712
50.1 -0.0010184
50.11 -0.00141744
50.12 -0.00181463
50.13 -0.00220271
50.14 -0.00257577
50.15 -0.00292829
50.16 -0.00325502
50.17 -0.00355116
50.18 -0.00381242
50.19 -0.0040351
50.2 -0.00421611
50.21 -0.0043519
50.22 -0.0044387
50.23 -0.00447882
50.24 -0.00447223
50.25 -0.00441968
50.26 -0.0043226
50.27 -0.00418317
50.28 -0.00400417
50.29 -0.00378902
50.3 -0.00353987
50.31 -0.00326281
50.32 -0.00296368
50.33 -0.00264763
50.34 -0.00232004
50.35 -0.00198634
50.36 -0.00165201
50.37 -0.00132243
50.38 -0.00100292
50.39 -0.000700004
50.4 -0.000417239
50.41 -0.000158666
50.42 7.2184e-05
50.43 0.000272342
50.44 0.000439443
50.45 0.00057176
50.46 0.000668225
50.47 0.000726658
50.48 0.000747597
50.49 0.00073374
50.5 0.000686756
50.51 0.000608886
50.52 0.000502894
50.53 0.000372
50.54 0.000219824
50.55 5.03043e-05
50.56 -0.000133153
50.57 -0.000324724
50.58 -0.0005199
50.59 -0.000714268
50.6 -0.000903516
50.61 -0.00108351
50.62 -0.00125035
50.63 -0.00140046
50.64 -0.00152986
50.65 -0.00163487
50.66 -0.00171449
50.67 -0.001767
50.68 -0.00179117
50.69 -0.00178629
50.7 -0.00175215
50.71 -0.00168906
50.72 -0.00159778
50.73 -0.00147766
50.74 -0.00133195
50.75 -0.00116325
50.76 -0.000973902
50.77 -0.000766466
50.78 -0.000543682
50.79 -0.000308406
50.8 -6.35454e-05
50.81 0.000188063
50.82 0.000443502
50.83 0.0006996
50.84 0.000953822
50.85 0.00120385
50.86 0.00144758
50.87 0.0016832
50.88 0.00190914
50.89 0.00212415
50.9 0.00232649
50.91 0.00251567
50.92 0.00269171
50.93 0.00285445
50.94 0.00300393
50.95 0.00314031
50.96 0.00326394
50.97 0.00337519
50.98 0.0034745
50.99 0.00356133
51 0.00363716
51.01 0.0037023
51.02 0.00375696
51.03 0.00380117
51.04 0.00383484
51.05 0.00385765
51.06 0.00386915
51.07 0.00386812
51.08 0.00385345
51.09 0.00382476
51.1 0.00378086
51.11 0.00372051
51.12 0.00364238
51.13 0.00354514
51.14 0.00342751
51.15 0.0032883
51.16 0.00312453
51.17 0.00293687
51.18 0.00272509
51.19 0.00248899
51.2 0.00222874
51.21 0.00194492
51.22 0.00163853
51.23 0.00131108
51.24 0.000964098
51.25 0.000599693
51.26 0.000222213
51.27 -0.000164805
51.28 -0.000557389
51.29 -0.000951169
51.3 -0.00134143
51.31 -0.00172317
51.32 -0.00209117
51.33 -0.00243847
51.34 -0.00275981
51.35 -0.0030504
51.36 -0.0033051
51.37 -0.00351899
51.38 -0.00368753
51.39 -0.00380661
51.4 -0.00387267
51.41 -0.00388211
51.42 -0.00382831
51.43 -0.00371466
51.44 -0.00354068
51.45 -0.00330674
51.46 -0.00301408
51.47 -0.00266482
51.48 -0.00226198
51.49 -0.00180941
51.5 -0.00130979
51.51 -0.000769593
51.52 -0.000197041
51.53 0.000401041
51.54 0.00101735
51.55 0.0016442
51.56 0.00227368
51.57 0.00289773
51.58 0.00350828
51.59 0.0040948
51.6 0.00465086
51.61 0.00516938
51.62 0.0056437
51.63 0.00606782
51.64 0.00643646
51.65 0.00674517
51.66 0.00699039
51.67 0.00716716
51.68 0.00727212
51.69 0.00730888
51.7 0.00727809
51.71 0.00718142
51.72 0.00702148
51.73 0.00680181
51.74 0.00652675
51.75 0.00620143
51.76 0.00582879
51.77 0.00541825
51.78 0.0049775
51.79 0.00451363
51.8 0.00403386
51.81 0.00354542
51.82 0.00305539
51.83 0.00257062
51.84 0.00209794
51.85 0.0016449
51.86 0.0012158
51.87 0.000815196
51.88 0.000446894
51.89 0.000113881
51.9 -0.000181697
51.91 -0.000438556
51.92 -0.000656268
51.93 -0.000833047
51.94 -0.000971247
51.95 -0.00107438
51.96 -0.00114522
51.97 -0.00118714
51.98 -0.00120395
51.99 -0.00119984
52 -0.00117926
52.01 -0.00114674
52.02 -0.00110667
52.03 -0.00106449
52.04 -0.00102436
52.05 -0.000990107
52.06 -0.000965074
52.07 -0.000952067
52.08 -0.000953271
52.09 -0.00097019
52.1 -0.00100433
52.11 -0.00105576
52.12 -0.00112276
52.13 -0.0012037
52.14 -0.00129627
52.15 -0.00139751
52.16 -0.00150388
52.17 -0.00161135
52.18 -0.00171551
52.19 -0.00181057
52.2 -0.00189176
52.21 -0.00195426
52.22 -0.00199328
52.23 -0.00200425
52.24 -0.00198296
52.25 -0.00192569
52.26 -0.0018293
52.27 -0.00169017
52.28 -0.00150481
52.29 -0.00127541
52.3 -0.00100226
52.31 -0.000686585
52.32 -0.000330544
52.33 6.27652e-05
52.34 0.000489349
52.35 0.000944366
52.36 0.00142329
52.37 0.00191817
52.38 0.00242138
52.39 0.00292552
52.4 0.00342287
52.41 0.0039056
52.42 0.00436588
52.43 0.00479603
52.44 0.00518817
52.45 0.00553163
52.46 0.0058235
52.47 0.00605846
52.48 0.00623209
52.49 0.00634095
52.5 0.00638273
52.51 0.00635621
52.52 0.00626139
52.53 0.00609617
52.54 0.00586396
52.55 0.00557151
52.56 0.00522378
52.57 0.00482676
52.58 0.00438735
52.59 0.00391327
52.6 0.00341289
52.61 0.00289511
52.62 0.00236929
52.63 0.00184635
52.64 0.00133569
52.65 0.000846482
52.66 0.000387481
52.67 -3.31211e-05
52.68 -0.00040786
52.69 -0.000730145
52.7 -0.000992141
52.71 -0.00118756
52.72 -0.00131688
52.73 -0.00137841
52.74 -0.00137178
52.75 -0.00129795
52.76 -0.00115918
52.77 -0.000959011
52.78 -0.000702158
52.79 -0.000391151
52.8 -3.64697e-05
52.81 0.00035307
52.82 0.000768958
52.83 0.0012022
52.84 0.00164349
52.85 0.00208341
52.86 0.00251259
52.87 0.00292135
52.88 0.00329862
52.89 0.00363812
52.9 0.00393281
52.91 0.00417661
52.92 0.00436456
52.93 0.00449288
52.94 0.00455904
52.95 0.00456188
52.96 0.00449789
52.97 0.00437053
52.98 0.00418514
52.99 0.00394614
53 0.00365907
53.01 0.00333054
53.02 0.00296805
53.03 0.00257989
53.04 0.00217488
53.05 0.00176259
53.06 0.00135388
53.07 0.000958238
53.08 0.000584908
53.09 0.000242713
53.1 -6.01252e-05
53.11 -0.000316163
53.12 -0.000518887
53.13 -0.000660069
53.14 -0.000734688
53.15 -0.000743087
53.16 -0.000683973
53.17 -0.000557449
53.18 -0.00036501
53.19 -0.000109524
53.2 0.000204822
53.21 0.000572607
53.22 0.000990554
53.23 0.00144688
53.24 0.00193251
53.25 0.00243821
53.26 0.00295433
53.27 0.00347096
53.28 0.00397811
53.29 0.00446597
53.3 0.00492397
53.31 0.00534082
53.32 0.00571051
53.33 0.00602598
53.34 0.00628122
53.35 0.00647145
53.36 0.00659319
53.37 0.00664431
53.38 0.00662411
53.39 0.00652866
53.4 0.00636348
53.41 0.00613424
53.42 0.00584605
53.43 0.00550515
53.44 0.00511886
53.45 0.00469533
53.46 0.00424347
53.47 0.00377258
53.48 0.0032928
53.49 0.00281543
53.5 0.00235021
53.51 0.00190653
53.52 0.00149326
53.53 0.00111854
53.54 0.000789627
53.55 0.000512733
53.56 0.000296096
53.57 0.000143164
53.58 5.35852e-05
53.59 2.80149e-05
53.6 6.5683e-05
53.61 0.00016441
53.62 0.000320656
53.63 0.000529596
53.64 0.000785226
53.65 0.0010834
53.66 0.00141185
53.67 0.00176167
53.68 0.00212355
53.69 0.00248793
53.7 0.00284515
53.71 0.00318571
53.72 0.00350046
53.73 0.00377922
53.74 0.00401243
53.75 0.00419544
53.76 0.00432272
53.77 0.00438995
53.78 0.0043942
53.79 0.00433396
53.8 0.00420919
53.81 0.00402135
53.82 0.00376913
53.83 0.00346104
53.84 0.00310416
53.85 0.00270573
53.86 0.00227402
53.87 0.00181822
53.88 0.00134821
53.89 0.000874402
53.9 0.000407868
53.91 -3.8544e-05
53.92 -0.000454928
53.93 -0.000831193
53.94 -0.00115791
53.95 -0.00142651
53.96 -0.00162947
53.97 -0.0017605
53.98 -0.00181465
53.99 -0.00178347
54 -0.00166725
54.01 -0.00146884
54.02 -0.00119002
54.03 -0.000834178
54.04 -0.000406291
54.05 8.71822e-05
54.06 0.000638411
54.07 0.00123855
54.08 0.00187962
54.09 0.0025463
54.1 0.00322685
54.11 0.0039092
54.12 0.00458117
54.13 0.00523067
54.14 0.00584602
54.15 0.00641613
54.16 0.00692779
54.17 0.00737048
54.18 0.00773935
54.19 0.00802815
54.2 0.00823219
54.21 0.00834847
54.22 0.00837569
54.23 0.0083143
54.24 0.00816651
54.25 0.00792973
54.26 0.0076164
54.27 0.00723474
54.28 0.00679349
54.29 0.00630254
54.3 0.00577274
54.31 0.00521569
54.32 0.00464347
54.33 0.00406873
54.34 0.00350554
54.35 0.00296596
54.36 0.0024614
54.37 0.00200245
54.38 0.00159868
54.39 0.00125844
54.4 0.000988652
54.41 0.00079472
54.42 0.000685998
54.43 0.000660939
54.44 0.000717268
54.45 0.000852956
54.46 0.00106423
54.47 0.00134563
54.48 0.00169014
54.49 0.00208935
54.5 0.00253405
54.51 0.00301462
54.52 0.00351589
54.53 0.00402569
54.54 0.00453161
54.55 0.00502127
54.56 0.00548259
54.57 0.00590403
54.58 0.00627487
54.59 0.00658173
54.6 0.00681611
54.61 0.00697394
54.62 0.0070503
54.63 0.00704204
54.64 0.00694787
54.65 0.00676842
54.66 0.00650624
54.67 0.00616576
54.68 0.00574729
54.69 0.00526627
54.7 0.0047327
54.71 0.00415777
54.72 0.0035538
54.73 0.002934
54.74 0.00231216
54.75 0.00170245
54.76 0.00112063
54.77 0.000583067
54.78 0.000101444
54.79 -0.000311833
54.8 -0.000645495
54.81 -0.000889645
54.82 -0.00103597
54.83 -0.00107795
54.84 -0.00101097
54.85 -0.000823808
54.86 -0.000523019
54.87 -0.000112741
54.88 0.000402672
54.89 0.0010168
54.9 0.00172124
54.91 0.00250577
54.92 0.00335852
54.93 0.00426704
54.94 0.00521712
54.95 0.0061893
54.96 0.00716738
54.97 0.00813488
54.98 0.00907534
54.99 0.00997267
55 0.0108114
55.01 0.011577
55.02 0.01225
55.03 0.0128201
55.04 0.0132802
55.05 0.0136226
55.06 0.0138415
55.07 0.0139333
55.08 0.0138966
55.09 0.0137323
55.1 0.0134428
55.11 0.0130242
55.12 0.0124954
55.13 0.011866
55.14 0.0111474
55.15 0.0103524
55.16 0.00949502
55.17 0.00859026
55.18 0.00765377
55.19 0.00670157
55.2 0.00575176
55.21 0.0048207
55.22 0.00392345
55.23 0.00307419
55.24 0.00228594
55.25 0.00157033
55.26 0.000937408
55.27 0.000395468
55.28 -4.03833e-05
55.29 -0.000373157
55.3 -0.000601847
55.31 -0.000726625
55.32 -0.000749667
55.33 -0.000675076
55.34 -0.000508764
55.35 -0.000258294
55.36 6.92618e-05
55.37 0.000464462
55.38 0.000911091
55.39 0.00139697
55.4 0.00190949
55.41 0.00243592
55.42 0.00296366
55.43 0.00348053
55.44 0.00397498
55.45 0.00443341
55.46 0.00484702
55.47 0.00520883
55.48 0.00551251
55.49 0.00575337
55.5 0.00592843
55.51 0.00603646
55.52 0.006078
55.53 0.00605437
55.54 0.00596615
55.55 0.00582414
55.56 0.00563544
55.57 0.00540828
55.58 0.00515182
55.59 0.00487593
55.6 0.00459096
55.61 0.00430744
55.62 0.00403707
55.63 0.003791
55.64 0.00357809
55.65 0.00340688
55.66 0.00328478
55.67 0.00321795
55.68 0.00321106
55.69 0.00326723
55.7 0.00338788
55.71 0.00357854
55.72 0.00383069
55.73 0.0041401
55.74 0.00450091
55.75 0.00490575
55.76 0.00534583
55.77 0.00581117
55.78 0.00629078
55.79 0.00677251
55.8 0.00724238
55.81 0.00768783
55.82 0.00809649
55.83 0.00845636
55.84 0.00875614
55.85 0.00898547
55.86 0.00913521
55.87 0.00919763
55.88 0.00915899
55.89 0.00902072
55.9 0.00878248
55.91 0.00844451
55.92 0.00800909
55.93 0.00748066
55.94 0.00686567
55.95 0.00617258
55.96 0.00541037
55.97 0.00458983
55.98 0.00372938
55.99 0.00284389
56 0.0019491
56.01 0.00106132
56.02 0.000197132
56.03 -0.000626971
56.04 -0.00139487
56.05 -0.00208576
56.06 -0.00268607
56.07 -0.00318549
56.08 -0.00357303
56.09 -0.00383964
56.1 -0.00397838
56.11 -0.0039846
56.12 -0.00385605
56.13 -0.00359196
56.14 -0.00318516
56.15 -0.00265313
56.16 -0.00200408
56.17 -0.00124846
56.18 -0.00039879
56.19 0.000530525
56.2 0.0015235
56.21 0.00256283
56.22 0.00363062
56.23 0.00470541
56.24 0.00576677
56.25 0.0067956
56.26 0.00777339
56.27 0.00868248
56.28 0.00950649
56.29 0.0102305
56.3 0.0108417
56.31 0.0113174
56.32 0.0116587
56.33 0.0118611
56.34 0.0119217
56.35 0.0118405
56.36 0.01162
56.37 0.0112657
56.38 0.0107854
56.39 0.0101863
56.4 0.00947938
56.41 0.00868691
56.42 0.00782559
56.43 0.00691342
56.44 0.00596941
56.45 0.00501318
56.46 0.00406456
56.47 0.00314325
56.48 0.00227305
56.49 0.00147165
56.5 0.00075453
56.51 0.000136578
56.52 -0.000369295
56.53 -0.000752429
56.54 -0.00100463
56.55 -0.00112032
56.56 -0.00109445
56.57 -0.000918603
56.58 -0.000607213
56.59 -0.000166498
56.6 0.000394689
56.61 0.00106503
56.62 0.00183095
56.63 0.00267688
56.64 0.00358556
56.65 0.00453968
56.66 0.00551641
56.67 0.00649377
56.68 0.00745131
56.69 0.0083688
56.7 0.00922671
56.71 0.0100065
56.72 0.0106911
56.73 0.0112651
56.74 0.0117025
56.75 0.0120034
56.76 0.0121599
56.77 0.0121669
56.78 0.012022
56.79 0.0117256
56.8 0.0112812
56.81 0.0106949
56.82 0.00997077
56.83 0.00912001
56.84 0.00816404
56.85 0.00711902
56.86 0.00600275
56.87 0.00483437
56.88 0.00363398
56.89 0.00242228
56.9 0.00122013
56.91 5.22334e-05
56.92 -0.00106151
56.93 -0.00210277
56.94 -0.00305412
56.95 -0.00389987
56.96 -0.00462636
56.97 -0.00522219
56.98 -0.00567839
56.99 -0.00598501
57 -0.00613149
57.01 -0.00612795
57.02 -0.00597698
57.03 -0.00568385
57.04 -0.00525636
57.05 -0.00470474
57.06 -0.00404137
57.07 -0.00328056
57.08 -0.00243418
57.09 -0.00152423
57.1 -0.000571509
57.11 0.000405096
57.12 0.00138658
57.13 0.00235418
57.14 0.0032897
57.15 0.0041759
57.16 0.00499611
57.17 0.00572848
57.18 0.00636672
57.19 0.00690081
57.2 0.007323
57.21 0.00762793
57.22 0.00781273
57.23 0.00787701
57.24 0.00782286
57.25 0.0076496
57.26 0.00736538
57.27 0.00698478
57.28 0.006519
57.29 0.00598082
57.3 0.00538435
57.31 0.00474471
57.32 0.00407772
57.33 0.00339956
57.34 0.00272831
57.35 0.00208073
57.36 0.00147186
57.37 0.000915799
57.38 0.000425341
57.39 1.17635e-05
57.4 -0.000315396
57.41 -0.000548514
57.42 -0.000678654
57.43 -0.00069922
57.44 -0.000615701
57.45 -0.000429549
57.46 -0.000144337
57.47 0.000234339
57.48 0.000699003
57.49 0.00124048
57.5 0.00184808
57.51 0.00251284
57.52 0.00321771
57.53 0.00394776
57.54 0.00468889
57.55 0.00542696
57.56 0.0061481
57.57 0.00683895
57.58 0.00748697
57.59 0.00807955
57.6 0.00860166
57.61 0.00904929
57.62 0.00941576
57.63 0.0096962
57.64 0.00988758
57.65 0.00998878
57.66 0.0100006
57.67 0.00992554
57.68 0.00976378
57.69 0.00952372
57.7 0.00921627
57.71 0.00885044
57.72 0.00843627
57.73 0.00798453
57.74 0.00750655
57.75 0.00701387
57.76 0.00651807
57.77 0.00603217
57.78 0.00556685
57.79 0.00513186
57.8 0.00473588
57.81 0.00438636
57.82 0.00408937
57.83 0.00384943
57.84 0.00366947
57.85 0.00355325
57.86 0.00350087
57.87 0.00350656
57.88 0.00356631
57.89 0.00367463
57.9 0.00382471
57.91 0.0040086
57.92 0.00421737
57.93 0.00444139
57.94 0.00467008
57.95 0.00489173
57.96 0.00509596
57.97 0.00527277
57.98 0.00541272
57.99 0.00550721
58 0.00554864
58.01 0.00553066
58.02 0.00544656
58.03 0.00528973
58.04 0.00506326
58.05 0.00476745
58.06 0.00440433
58.07 0.00397764
58.08 0.00349278
58.09 0.00295668
58.1 0.00237773
58.11 0.00176412
58.12 0.00112901
58.13 0.000485051
58.14 -0.000155508
58.15 -0.000780151
58.16 -0.00137635
58.17 -0.00193183
58.18 -0.00243485
58.19 -0.00287372
58.2 -0.00323213
58.21 -0.00350726
58.22 -0.00369228
58.23 -0.003782
58.24 -0.00377307
58.25 -0.00366399
58.26 -0.00345521
58.27 -0.00314915
58.28 -0.00274587
58.29 -0.00225294
58.3 -0.00168288
58.31 -0.00104555
58.32 -0.000352206
58.33 0.000384784
58.34 0.00115213
58.35 0.00193592
58.36 0.00272187
58.37 0.0034933
58.38 0.00423598
58.39 0.00493657
58.4 0.0055825
58.41 0.00616234
58.42 0.00666602
58.43 0.00708503
58.44 0.00741263
58.45 0.0076406
58.46 0.0077633
58.47 0.0077863
58.48 0.00771136
58.49 0.00754229
58.5 0.00728483
58.51 0.00694657
58.52 0.00653677
58.53 0.00606618
58.54 0.00554421
58.55 0.00498779
58.56 0.00441179
58.57 0.00383039
58.58 0.0032578
58.59 0.00270798
58.6 0.00219431
58.61 0.00172931
58.62 0.00132564
58.63 0.000998277
58.64 0.000750446
58.65 0.000588248
58.66 0.000515788
58.67 0.000535073
58.68 0.000645959
58.69 0.000846139
58.7 0.00113118
58.71 0.0014986
58.72 0.00193716
58.73 0.00243346
58.74 0.00297547
58.75 0.00354995
58.76 0.00414273
58.77 0.00473894
58.78 0.00532344
58.79 0.00588093
58.8 0.0063915
58.81 0.00684388
58.82 0.0072252
58.83 0.00752394
58.84 0.00773021
58.85 0.00783601
58.86 0.00783542
58.87 0.00772474
58.88 0.00749803
58.89 0.00715566
58.9 0.00670762
58.91 0.00616043
58.92 0.00552292
58.93 0.00480606
58.94 0.0040228
58.95 0.0031878
58.96 0.00231719
58.97 0.00142825
58.98 0.000542075
58.99 -0.000322542
59 -0.00114703
59.01 -0.00191321
59.02 -0.00260368
59.03 -0.00320217
59.04 -0.00369389
59.05 -0.00406239
59.06 -0.00429036
59.07 -0.00437814
59.08 -0.0043204
59.09 -0.00411455
59.1 -0.00376088
59.11 -0.00326255
59.12 -0.00262561
59.13 -0.00185889
59.14 -0.000967106
59.15 2.94816e-05
59.16 0.00111073
59.17 0.00225796
59.18 0.00345092
59.19 0.00466815
59.2 0.00588738
59.21 0.00708591
59.22 0.00824038
59.23 0.0093216
59.24 0.0103124
59.25 0.0111932
59.26 0.011946
59.27 0.0125551
59.28 0.0130072
59.29 0.0132915
59.3 0.0134004
59.31 0.0133203
59.32 0.0130512
59.33 0.0126036
59.34 0.0119835
59.35 0.0112001
59.36 0.0102654
59.37 0.00919442
59.38 0.00800455
59.39 0.00671553
59.4 0.00534411
59.41 0.00392211
59.42 0.00247427
59.43 0.00102552
59.44 -0.000399182
59.45 -0.00177522
59.46 -0.00307884
59.47 -0.00428755
59.48 -0.00537585
59.49 -0.00631969
59.5 -0.00711048
59.51 -0.00773534
59.52 -0.00818443
59.53 -0.00845111
59.54 -0.00853207
59.55 -0.00842739
59.56 -0.00814053
59.57 -0.00766604
59.58 -0.00702475
59.59 -0.00623385
59.6 -0.00530964
59.61 -0.00427079
59.62 -0.00313794
59.63 -0.00193339
59.64 -0.000680599
59.65 0.000596153
59.66 0.00186969
59.67 0.00311423
59.68 0.00430629
59.69 0.00542354
59.7 0.00644527
59.71 0.00735274
59.72 0.00812951
59.73 0.00876179
59.74 0.00922908
59.75 0.00952653
59.76 0.0096559
59.77 0.00961655
59.78 0.00941113
59.79 0.0090455
59.8 0.00852856
59.81 0.00787212
59.82 0.00709023
59.83 0.00619199
59.84 0.00520778
59.85 0.00415831
59.86 0.00306541
59.87 0.00195162
59.88 0.000839682
59.89 -0.000247833
59.9 -0.00128901
59.91 -0.00225922
59.92 -0.00313612
59.93 -0.00390627
59.94 -0.00455486
59.95 -0.00506964
59.96 -0.00544112
59.97 -0.00566272
59.98 -0.00573096
59.99 -0.00564542
60 -0.00539686
60.01 -0.00500261
60.02 -0.00447384
60.03 -0.00382255
60.04 -0.00306316
60.05 -0.00221224
60.06 -0.00128817
60.07 -0.000310767
60.08 0.000699374
60.09 0.00171871
60.1 0.0027236
60.11 0.00369267
60.12 0.00460532
60.13 0.00544209
60.14 0.00618505
60.15 0.00681813
60.16 0.00732744
60.17 0.00769189
60.18 0.00790746
60.19 0.00797265
60.2 0.00788515
60.21 0.00764563
60.22 0.00725772
60.23 0.00672792
60.24 0.00606551
60.25 0.00528107
60.26 0.00438284
60.27 0.00339727
60.28 0.00234262
60.29 0.00123842
60.3 0.000105087
60.31 -0.00103648
60.32 -0.00216527
60.33 -0.00326061
60.34 -0.00429879
60.35 -0.00525917
60.36 -0.00612717
60.37 -0.00688761
60.38 -0.00752749
60.39 -0.00803617
60.4 -0.00840557
60.41 -0.00863035
60.42 -0.00870792
60.43 -0.00862552
60.44 -0.00839968
60.45 -0.00803737
60.46 -0.00754757
60.47 -0.00694159
60.48 -0.00623288
60.49 -0.00543671
60.5 -0.00456991
60.51 -0.00364932
60.52 -0.00269531
60.53 -0.00173018
60.54 -0.000773241
60.55 0.000156612
60.56 0.00104125
60.57 0.00186366
60.58 0.00260829
60.59 0.00326133
60.6 0.00380249
60.61 0.00422736
60.62 0.0045314
60.63 0.00471058
60.64 0.00476348
60.65 0.0046913
60.66 0.00449781
60.67 0.00418929
60.68 0.00377243
60.69 0.00325419
60.7 0.0026555
60.71 0.00199106
60.72 0.00127686
60.73 0.000529844
60.74 -0.000232447
60.75 -0.000992202
60.76 -0.00173172
60.77 -0.0024305
60.78 -0.00307128
60.79 -0.00364046
60.8 -0.00412457
60.81 -0.00451192
60.82 -0.00479283
60.83 -0.00495982
60.84 -0.00500776
60.85 -0.00493342
60.86 -0.0047264
60.87 -0.00440062
60.88 -0.00396143
60.89 -0.00341651
60.9 -0.00277575
60.91 -0.00205099
60.92 -0.00125588
60.93 -0.000405543
60.94 0.000484575
60.95 0.0013951
60.96 0.00230629
60.97 0.0032001
60.98 0.0040587
60.99 0.0048648
61 0.00560197
61.01 0.00625495
61.02 0.00680993
61.03 0.00724481
61.04 0.00755681
61.05 0.00773969
61.06 0.00778826
61.07 0.00769974
61.08 0.00747377
61.09 0.00711245
61.1 0.00662028
61.11 0.0060008
61.12 0.00525993
61.13 0.00441725
61.14 0.00348596
61.15 0.00248075
61.16 0.00141758
61.17 0.000313323
61.18 -0.000814479
61.19 -0.00194796
61.2 -0.00306717
61.21 -0.00415323
61.22 -0.00518973
61.23 -0.00616083
61.24 -0.00705192
61.25 -0.00784987
61.26 -0.0085432
61.27 -0.00912232
61.28 -0.00957798
61.29 -0.00989554
61.3 -0.0100822
61.31 -0.0101374
61.32 -0.0100627
61.33 -0.00986158
61.34 -0.00953982
61.35 -0.0091049
61.36 -0.00856605
61.37 -0.0079298
61.38 -0.00721077
61.39 -0.00642615
61.4 -0.00559003
61.41 -0.00471696
61.42 -0.00382174
61.43 -0.00291913
61.44 -0.00202361
61.45 -0.00114913
61.46 -0.000313155
61.47 0.000474329
61.48 0.00120264
61.49 0.00186235
61.5 0.0024455
61.51 0.00294568
61.52 0.00335813
61.53 0.00367972
61.54 0.00390563
61.55 0.00403429
61.56 0.00407313
61.57 0.00402571
61.58 0.0038969
61.59 0.00369278
61.6 0.00342046
61.61 0.00308792
61.62 0.00270385
61.63 0.00227495
61.64 0.00181408
61.65 0.00133164
61.66 0.000837126
61.67 0.000339772
61.68 -0.000151634
61.69 -0.000628884
61.7 -0.00108448
61.71 -0.00151103
61.72 -0.00190044
61.73 -0.00225031
61.74 -0.00255712
61.75 -0.00281836
61.76 -0.00303256
61.77 -0.00319926
61.78 -0.00331895
61.79 -0.003393
61.8 -0.00342115
61.81 -0.00340787
61.82 -0.00335825
61.83 -0.00327638
61.84 -0.00316671
61.85 -0.00303388
61.86 -0.00288267
61.87 -0.00271783
61.88 -0.00254397
61.89 -0.00236553
61.9 -0.00218726
61.91 -0.00201279
61.92 -0.00184526
61.93 -0.00168733
61.94 -0.00154108
61.95 -0.00140809
61.96 -0.00128935
61.97 -0.00118599
61.98 -0.00109797
61.99 -0.00102396
62 -0.000962945
62.01 -0.000913607
62.02 -0.00087435
62.03 -0.000843399
62.04 -0.000818869
62.05 -0.000798846
62.06 -0.000781536
62.07 -0.000764869
62.08 -0.000747315
62.09 -0.000727627
62.1 -0.000704867
62.11 -0.000678439
62.12 -0.000648116
62.13 -0.000614053
62.14 -0.000576724
62.15 -0.000537106
62.16 -0.000496741
62.17 -0.000457272
62.18 -0.000420598
62.19 -0.000388823
62.2 -0.000364186
62.21 -0.000349
62.22 -0.000345575
62.23 -0.00035726
62.24 -0.000385727
62.25 -0.000432416
62.26 -0.000498828
62.27 -0.000586105
62.28 -0.000694972
62.29 -0.000825702
62.3 -0.000978082
62.31 -0.00115166
62.32 -0.00134636
62.33 -0.00155863
62.34 -0.00178616
62.35 -0.00202616
62.36 -0.00227545
62.37 -0.00253053
62.38 -0.00278761
62.39 -0.0030427
62.4 -0.00329115
62.41 -0.0035284
62.42 -0.00375068
62.43 -0.00395414
62.44 -0.00413519
62.45 -0.00429059
62.46 -0.00441752
62.47 -0.00451367
62.48 -0.00457731
62.49 -0.00460413
62.5 -0.00459679
62.51 -0.00455572
62.52 -0.00448195
62.53 -0.00437723
62.54 -0.00424391
62.55 -0.00408501
62.56 -0.00390408
62.57 -0.00370467
62.58 -0.00349159
62.59 -0.0032707
62.6 -0.00304709
62.61 -0.00282592
62.62 -0.00261238
62.63 -0.00241154
62.64 -0.00222822
62.65 -0.00206693
62.66 -0.00193404
62.67 -0.00183178
62.68 -0.00176247
62.69 -0.00172819
62.7 -0.00173025
62.71 -0.00176919
62.72 -0.00184471
62.73 -0.00195571
62.74 -0.00210091
62.75 -0.00227878
62.76 -0.00248327
62.77 -0.00271008
62.78 -0.00295433
62.79 -0.00321064
62.8 -0.00347326
62.81 -0.00373614
62.82 -0.00399307
62.83 -0.00423671
62.84 -0.00446061
62.85 -0.00465937
62.86 -0.00482755
62.87 -0.00496022
62.88 -0.00505306
62.89 -0.00510246
62.9 -0.0051056
62.91 -0.0050602
62.92 -0.00496121
62.93 -0.00481306
62.94 -0.00461686
62.95 -0.00437471
62.96 -0.00408965
62.97 -0.0037656
62.98 -0.00340734
62.99 -0.00302038
63 -0.00261018
63.01 -0.00218435
63.02 -0.00175117
63.03 -0.00131812
63.04 -0.000892812
63.05 -0.000482813
63.06 -9.55374e-05
63.07 0.000261915
63.08 0.000582889
63.09 0.000857211
63.1 0.0010824
63.11 0.00125449
63.12 0.00137003
63.13 0.00142655
63.14 0.00142263
63.15 0.00135793
63.16 0.00123318
63.17 0.00104853
63.18 0.000805422
63.19 0.000511681
63.2 0.000172316
63.21 -0.00020684
63.22 -0.000619235
63.23 -0.00105772
63.24 -0.00151468
63.25 -0.00198218
63.26 -0.00245167
63.27 -0.00291408
63.28 -0.00336139
63.29 -0.00378594
63.3 -0.00418053
63.31 -0.00453854
63.32 -0.00485406
63.33 -0.00512199
63.34 -0.00533734
63.35 -0.00549311
63.36 -0.00559158
63.37 -0.00563194
63.38 -0.00561446
63.39 -0.00554053
63.4 -0.00541258
63.41 -0.00523405
63.42 -0.00500932
63.43 -0.00474174
63.44 -0.00443867
63.45 -0.0041085
63.46 -0.00375843
63.47 -0.00339601
63.48 -0.00302896
63.49 -0.00266505
63.5 -0.00231193
63.51 -0.001977
63.52 -0.00167025
63.53 -0.0013962
63.54 -0.0011605
63.55 -0.000968017
63.56 -0.000822747
63.57 -0.000727755
63.58 -0.000685107
63.59 -0.000695841
63.6 -0.000761971
63.61 -0.000883103
63.62 -0.00105397
63.63 -0.00127133
63.64 -0.00153107
63.65 -0.00182827
63.66 -0.00215731
63.67 -0.00251197
63.68 -0.0028856
63.69 -0.00327151
63.7 -0.00366107
63.71 -0.00404682
63.72 -0.0044216
63.73 -0.00477849
63.74 -0.00511097
63.75 -0.00541299
63.76 -0.0056791
63.77 -0.00590356
63.78 -0.00607992
63.79 -0.00620825
63.8 -0.0062866
63.81 -0.00631397
63.82 -0.0062903
63.83 -0.0062165
63.84 -0.00609437
63.85 -0.00592663
63.86 -0.00571444
63.87 -0.00546392
63.88 -0.0051815
63.89 -0.00487276
63.9 -0.00454372
63.91 -0.00420071
63.92 -0.00385025
63.93 -0.00349889
63.94 -0.00315324
63.95 -0.00282117
63.96 -0.00250803
63.97 -0.00221933
63.98 -0.00196004
63.99 -0.00173453
64 -0.00154647
64.01 -0.00139881
64.02 -0.00129372
64.03 -0.00123464
64.04 -0.0012221
64.05 -0.00125357
64.06 -0.00132779
64.07 -0.00144282
64.08 -0.001596
64.09 -0.00178405
64.1 -0.00200318
64.11 -0.00224913
64.12 -0.00251876
64.13 -0.00280501
64.14 -0.00310264
64.15 -0.00340657
64.16 -0.00371179
64.17 -0.00401345
64.18 -0.00430697
64.19 -0.00458813
64.2 -0.00485249
64.21 -0.00509578
64.22 -0.00531643
64.23 -0.00551239
64.24 -0.00568221
64.25 -0.00582511
64.26 -0.00594089
64.27 -0.00603001
64.28 -0.00609348
64.29 -0.0061313
64.3 -0.00614696
64.31 -0.00614358
64.32 -0.00612411
64.33 -0.00609172
64.34 -0.00604979
64.35 -0.0060018
64.36 -0.00595124
64.37 -0.0059016
64.38 -0.00585673
64.39 -0.00581952
64.4 -0.00579263
64.41 -0.00577834
64.42 -0.00577851
64.43 -0.00579454
64.44 -0.0058273
64.45 -0.00587716
64.46 -0.00594485
64.47 -0.00602923
64.48 -0.00612831
64.49 -0.00624028
64.5 -0.00636291
64.51 -0.00649355
64.52 -0.00662924
64.53 -0.00676674
64.54 -0.00690263
64.55 -0.00703253
64.56 -0.00715304
64.57 -0.00726062
64.58 -0.00735188
64.59 -0.0074236
64.6 -0.00747286
64.61 -0.00749708
64.62 -0.00749406
64.63 -0.00746086
64.64 -0.0073957
64.65 -0.00729957
64.66 -0.00717242
64.67 -0.00701474
64.68 -0.00682759
64.69 -0.00661255
64.7 -0.00637171
64.71 -0.00610765
64.72 -0.00582203
64.73 -0.00551991
64.74 -0.00520535
64.75 -0.00488239
64.76 -0.00455519
64.77 -0.00422803
64.78 -0.00390523
64.79 -0.00359105
64.8 -0.00329001
64.81 -0.00300726
64.82 -0.00274546
64.83 -0.0025079
64.84 -0.00229748
64.85 -0.00211668
64.86 -0.0019675
64.87 -0.00185148
64.88 -0.00176963
64.89 -0.00172466
64.9 -0.00171535
64.91 -0.00174
64.92 -0.0017975
64.93 -0.0018863
64.94 -0.00200443
64.95 -0.00214956
64.96 -0.00231902
64.97 -0.00251006
64.98 -0.00272061
64.99 -0.00294557
65 -0.00318153
65.01 -0.00342507
65.02 -0.00367282
65.03 -0.00392147
65.04 -0.00416786
65.05 -0.004409
65.06 -0.00464164
65.07 -0.00486297
65.08 -0.00507124
65.09 -0.0052646
65.1 -0.0054415
65.11 -0.00560073
65.12 -0.00574139
65.13 -0.00586287
65.14 -0.00596489
65.15 -0.00604572
65.16 -0.00610722
65.17 -0.00614999
65.18 -0.00617471
65.19 -0.00618219
65.2 -0.00617334
65.21 -0.00614916
65.22 -0.00611069
65.23 -0.00605857
65.24 -0.00599359
65.25 -0.00591752
65.26 -0.00583124
65.27 -0.00573557
65.28 -0.00563119
65.29 -0.00551869
65.3 -0.00539854
65.31 -0.00527111
65.32 -0.00513618
65.33 -0.00499427
65.34 -0.00484563
65.35 -0.00469033
65.36 -0.00452838
65.37 -0.00435982
65.38 -0.00418472
65.39 -0.00400321
65.4 -0.00381541
65.41 -0.00362132
65.42 -0.00342194
65.43 -0.00321792
65.44 -0.00301011
65.45 -0.00279953
65.46 -0.00258742
65.47 -0.0023752
65.48 -0.00216451
65.49 -0.00195744
65.5 -0.00175618
65.51 -0.00156276
65.52 -0.00137946
65.53 -0.00120863
65.54 -0.0010527
65.55 -0.000914074
65.56 -0.000795151
65.57 -0.000698267
65.58 -0.000628032
65.59 -0.000584324
65.6 -0.00056889
65.61 -0.000583206
65.62 -0.000628442
65.63 -0.000705426
65.64 -0.000814614
65.65 -0.000956065
65.66 -0.00113068
65.67 -0.00133794
65.68 -0.0015748
65.69 -0.0018395
65.7 -0.00212989
65.71 -0.00244339
65.72 -0.00277707
65.73 -0.00312766
65.74 -0.00349159
65.75 -0.00386549
65.76 -0.00424431
65.77 -0.00462374
65.78 -0.00499954
65.79 -0.00536746
65.8 -0.0057233
65.81 -0.00606298
65.82 -0.00638263
65.83 -0.00667789
65.84 -0.00694387
65.85 -0.00717932
65.86 -0.00738171
65.87 -0.00754897
65.88 -0.00767945
65.89 -0.00777204
65.9 -0.00782609
65.91 -0.00784148
65.92 -0.00781617
65.93 -0.0077525
65.94 -0.00765308
65.95 -0.00751976
65.96 -0.00735483
65.97 -0.00716089
65.98 -0.00694088
65.99 -0.00669795
66 -0.0064353
66.01 -0.00615557
66.02 -0.00586392
66.03 -0.00556388
66.04 -0.00525891
66.05 -0.00495234
66.06 -0.00464729
66.07 -0.00434668
66.08 -0.00405309
66.09 -0.00376937
66.1 -0.0034976
66.11 -0.00323881
66.12 -0.00299406
66.13 -0.00276398
66.14 -0.00254884
66.15 -0.00234849
66.16 -0.00216244
66.17 -0.00198984
66.18 -0.00183051
66.19 -0.00168187
66.2 -0.00154218
66.21 -0.00140963
66.22 -0.00128232
66.23 -0.0011583
66.24 -0.00103567
66.25 -0.000912606
66.26 -0.000787294
66.27 -0.000658008
66.28 -0.000523725
66.29 -0.000383588
66.3 -0.000237081
66.31 -8.40691e-05
66.32 7.51856e-05
66.33 0.000240005
66.34 0.00040929
66.35 0.000581596
66.36 0.000754597
66.37 0.00092584
66.38 0.00109259
66.39 0.00125181
66.4 0.00140021
66.41 0.00153431
66.42 0.00165047
66.43 0.00174456
66.44 0.00181102
66.45 0.00184795
66.46 0.00185195
66.47 0.00181986
66.48 0.00174883
66.49 0.0016364
66.5 0.00148055
66.51 0.00127979
66.52 0.00103054
66.53 0.000733426
66.54 0.000390633
66.55 3.29826e-06
66.56 -0.000426756
66.57 -0.000897023
66.58 -0.00140432
66.59 -0.00194483
66.6 -0.00251413
66.61 -0.00310881
66.62 -0.00372062
66.63 -0.00434346
66.64 -0.00497085
66.65 -0.00559605
66.66 -0.0062121
66.67 -0.00681195
66.68 -0.00738856
66.69 -0.0079334
66.7 -0.00843849
66.71 -0.00889907
66.72 -0.00930918
66.73 -0.00966335
66.74 -0.00995669
66.75 -0.010185
66.76 -0.0103448
66.77 -0.0104334
66.78 -0.010443
66.79 -0.0103776
66.8 -0.0102384
66.81 -0.0100264
66.82 -0.00974376
66.83 -0.00939327
66.84 -0.00897874
66.85 -0.00850477
66.86 -0.00797547
66.87 -0.00739565
66.88 -0.00677578
66.89 -0.0061232
66.9 -0.00544567
66.91 -0.00475126
66.92 -0.00404824
66.93 -0.003345
66.94 -0.00264988
66.95 -0.00197272
66.96 -0.00132171
66.97 -0.000703876
66.98 -0.000126256
66.99 0.000404687
67 0.000883158
67.01 0.0013041
67.02 0.00166327
67.03 0.00195658
67.04 0.00217643
67.05 0.00232702
67.06 0.002408
67.07 0.00241998
67.08 0.0023645
67.09 0.002244
67.1 0.00206181
67.11 0.00182206
67.12 0.0015273
67.13 0.00118413
67.14 0.000801156
67.15 0.000385088
67.16 -5.69862e-05
67.17 -0.000517729
67.18 -0.000989661
67.19 -0.00146528
67.2 -0.00193715
67.21 -0.00239646
67.22 -0.00283669
67.23 -0.00325149
67.24 -0.00363501
67.25 -0.00398196
67.26 -0.00428778
67.27 -0.00454865
67.28 -0.00476154
67.29 -0.00492253
67.3 -0.00502894
67.31 -0.00508361
67.32 -0.00508722
67.33 -0.00504135
67.34 -0.00494837
67.35 -0.00481147
67.36 -0.00463457
67.37 -0.00442227
67.38 -0.00417794
67.39 -0.0039095
67.4 -0.00362373
67.41 -0.0033271
67.42 -0.0030262
67.43 -0.00272774
67.44 -0.00243834
67.45 -0.00216447
67.46 -0.00191288
67.47 -0.00169155
67.48 -0.00150401
67.49 -0.00135494
67.5 -0.00124834
67.51 -0.00118751
67.52 -0.00117494
67.53 -0.00121232
67.54 -0.00130047
67.55 -0.00144222
67.56 -0.0016353
67.57 -0.00187584
67.58 -0.00216102
67.59 -0.00248718
67.6 -0.00284995
67.61 -0.00324426
67.62 -0.00366445
67.63 -0.0041044
67.64 -0.00455799
67.65 -0.00501657
67.66 -0.00547299
67.67 -0.00592004
67.68 -0.00635055
67.69 -0.00675753
67.7 -0.00713424
67.71 -0.00747433
67.72 -0.00776987
67.73 -0.00801453
67.74 -0.0082061
67.75 -0.00834086
67.76 -0.00841591
67.77 -0.00842923
67.78 -0.00837969
67.79 -0.0082671
67.8 -0.00809219
67.81 -0.00785187
67.82 -0.0075533
67.83 -0.00720089
67.84 -0.00679909
67.85 -0.00635309
67.86 -0.00586879
67.87 -0.00535262
67.88 -0.00481153
67.89 -0.0042526
67.9 -0.00368393
67.91 -0.00311441
67.92 -0.00255185
67.93 -0.00200397
67.94 -0.00147827
67.95 -0.000981916
67.96 -0.000521643
67.97 -0.000103663
67.98 0.000262921
67.99 0.00057467
68 0.000829034
68.01 0.00102296
68.02 0.00115429
68.03 0.00122179
68.04 0.00122515
68.05 0.00116501
68.06 0.00104226
68.07 0.000855443
68.08 0.000613188
68.09 0.000319794
68.1 -1.97253e-05
68.11 -0.000399718
68.12 -0.000813983
68.13 -0.00125587
68.14 -0.00171838
68.15 -0.00219455
68.16 -0.00267599
68.17 -0.00315477
68.18 -0.00362363
68.19 -0.00407556
68.2 -0.00450387
68.21 -0.00490228
68.22 -0.00526507
68.23 -0.0055871
68.24 -0.00585949
68.25 -0.00608224
68.26 -0.00625281
68.27 -0.00636926
68.28 -0.00643054
68.29 -0.00643644
68.3 -0.00638759
68.31 -0.00628546
68.32 -0.0061306
68.33 -0.00592533
68.34 -0.0056765
68.35 -0.00538857
68.36 -0.00506653
68.37 -0.00471582
68.38 -0.00434221
68.39 -0.00395177
68.4 -0.00355071
68.41 -0.00314544
68.42 -0.00274303
68.43 -0.00234962
68.44 -0.00197099
68.45 -0.0016126
68.46 -0.00127948
68.47 -0.000976159
68.48 -0.000706609
68.49 -0.000474976
68.5 -0.000286355
68.51 -0.000139761
68.52 -3.62987e-05
68.53 2.36565e-05
68.54 4.04546e-05
68.55 1.51545e-05
68.56 -5.05019e-05
68.57 -0.000154127
68.58 -0.00029459
68.59 -0.000467045
68.6 -0.000666161
68.61 -0.000887443
68.62 -0.00112608
68.63 -0.00137704
68.64 -0.00163515
68.65 -0.00189516
68.66 -0.00215182
68.67 -0.00239883
68.68 -0.00263172
68.69 -0.00284592
68.7 -0.00303723
68.71 -0.00320187
68.72 -0.00333656
68.73 -0.00343853
68.74 -0.00350557
68.75 -0.00353447
68.76 -0.00352393
68.77 -0.00347564
68.78 -0.00339003
68.79 -0.00326818
68.8 -0.00311174
68.81 -0.00292294
68.82 -0.00270453
68.83 -0.00245978
68.84 -0.00219079
68.85 -0.00190365
68.86 -0.00160302
68.87 -0.00129352
68.88 -0.000979898
68.89 -0.000666987
68.9 -0.0003596
68.91 -6.24707e-05
68.92 0.00021928
68.93 0.000480105
68.94 0.000717061
68.95 0.000926548
68.96 0.00110539
68.97 0.0012509
68.98 0.00136089
68.99 0.00143372
69 0.00146834
69.01 0.00146168
69.02 0.00141554
69.03 0.00133183
69.04 0.00121202
69.05 0.00105813
69.06 0.00087269
69.07 0.000658771
69.08 0.000419876
69.09 0.000159713
69.1 -0.000118151
69.11 -0.000407429
69.12 -0.000703305
69.13 -0.00100083
69.14 -0.00129497
69.15 -0.00158073
69.16 -0.00185316
69.17 -0.00210749
69.18 -0.00233773
69.19 -0.00253935
69.2 -0.00270949
69.21 -0.00284474
69.22 -0.00294216
69.23 -0.00299935
69.24 -0.00301444
69.25 -0.00298617
69.26 -0.00291387
69.27 -0.00279355
69.28 -0.00262987
69.29 -0.00242433
69.3 -0.00217894
69.31 -0.00189629
69.32 -0.00157953
69.33 -0.00123234
69.34 -0.000858875
69.35 -0.000463112
69.36 -5.02691e-05
69.37 0.000373123
69.38 0.000801546
69.39 0.00122934
69.4 0.0016508
69.41 0.00206023
69.42 0.00245201
69.43 0.00282072
69.44 0.00315868
69.45 0.00346223
69.46 0.00372757
69.47 0.00395083
69.48 0.00412867
69.49 0.00425836
69.5 0.00433777
69.51 0.00436546
69.52 0.00433958
69.53 0.00425737
69.54 0.00412354
69.55 0.00393962
69.56 0.00370786
69.57 0.00343114
69.58 0.00311298
69.59 0.0027575
69.6 0.00236932
69.61 0.00195223
69.62 0.00151311
69.63 0.00105877
69.64 0.000595287
69.65 0.000128893
69.66 -0.000334156
69.67 -0.00078765
69.68 -0.00122552
69.69 -0.00164178
69.7 -0.00202812
69.71 -0.00238153
69.72 -0.00269747
69.73 -0.00297196
69.74 -0.00320163
69.75 -0.0033838
69.76 -0.00351646
69.77 -0.00359836
69.78 -0.00362672
69.79 -0.00360164
69.8 -0.00352686
69.81 -0.00340427
69.82 -0.00323646
69.83 -0.00302667
69.84 -0.00277871
69.85 -0.00249694
69.86 -0.00218615
69.87 -0.00184998
69.88 -0.00149617
69.89 -0.00113062
69.9 -0.000759075
69.91 -0.000387256
69.92 -2.07459e-05
69.93 0.000335088
69.94 0.000675192
69.95 0.000994189
69.96 0.00128659
69.97 0.00155029
69.98 0.00178241
69.99 0.00198078
70 0.00214389
70.01 0.002271
70.02 0.00236208
70.03 0.00241784
70.04 0.00243752
70.05 0.002425
70.06 0.00238404
70.07 0.00231807
70.08 0.00223103
70.09 0.00212727
70.1 0.00201145
70.11 0.00188846
70.12 0.00176334
70.13 0.00164184
70.14 0.00152895
70.15 0.00142935
70.16 0.0013474
70.17 0.00128701
70.18 0.0012516
70.19 0.00124401
70.2 0.0012664
70.21 0.00132192
70.22 0.00141088
70.23 0.00153166
70.24 0.00168316
70.25 0.00186347
70.26 0.00206992
70.27 0.00229906
70.28 0.00254679
70.29 0.00280835
70.3 0.00307873
70.31 0.0033509
70.32 0.00361871
70.33 0.00387584
70.34 0.00411587
70.35 0.00433247
70.36 0.00451946
70.37 0.00467096
70.38 0.00477984
70.39 0.00483978
70.4 0.00484913
70.41 0.00480463
70.42 0.00470392
70.43 0.00454556
70.44 0.00432914
70.45 0.00405527
70.46 0.00372564
70.47 0.00333922
70.48 0.00290345
70.49 0.00242429
70.5 0.00190767
70.51 0.0013604
70.52 0.000790006
70.53 0.000204651
70.54 -0.000386997
70.55 -0.000975634
70.56 -0.00155039
70.57 -0.00210228
70.58 -0.00262218
70.59 -0.00310128
70.6 -0.00353122
70.61 -0.00390431
70.62 -0.00421359
70.63 -0.00445305
70.64 -0.00461284
70.65 -0.00469094
70.66 -0.00468752
70.67 -0.00460157
70.68 -0.00443338
70.69 -0.00418467
70.7 -0.00385846
70.71 -0.00345913
70.72 -0.00299194
70.73 -0.00245956
70.74 -0.00187603
70.75 -0.0012505
70.76 -0.000592879
70.77 8.62432e-05
70.78 0.000775819
70.79 0.00146451
70.8 0.00214085
70.81 0.00279189
70.82 0.00340506
70.83 0.00397112
70.84 0.00448032
70.85 0.00492375
70.86 0.00529357
70.87 0.00558308
70.88 0.00578688
70.89 0.00590097
70.9 0.00591488
70.91 0.00583476
70.92 0.0056624
70.93 0.00540025
70.94 0.00505229
70.95 0.00462396
70.96 0.00412206
70.97 0.00355464
70.98 0.00292953
70.99 0.00225658
71 0.00155049
71.01 0.000822946
71.02 8.60546e-05
71.03 -0.000647926
71.04 -0.00136677
71.05 -0.00205848
71.06 -0.0027115
71.07 -0.00331077
71.08 -0.00384749
71.09 -0.00431411
71.1 -0.00470298
71.11 -0.00500776
71.12 -0.00522353
71.13 -0.00534686
71.14 -0.00537586
71.15 -0.00530888
71.16 -0.00514135
71.17 -0.00488399
71.18 -0.00454144
71.19 -0.00411968
71.2 -0.00362598
71.21 -0.00306873
71.22 -0.00245729
71.23 -0.00180183
71.24 -0.00111197
71.25 -0.000400794
71.26 0.000318953
71.27 0.00103583
71.28 0.00173865
71.29 0.00241661
71.3 0.00305955
71.31 0.0036581
71.32 0.00420381
71.33 0.00468312
71.34 0.00509517
71.35 0.00543548
71.36 0.00570092
71.37 0.00588974
71.38 0.00600166
71.39 0.00603779
71.4 0.00600065
71.41 0.00589158
71.42 0.00571523
71.43 0.00548188
71.44 0.00519885
71.45 0.00487427
71.46 0.00451689
71.47 0.00413591
71.48 0.00374079
71.49 0.00334107
71.5 0.00294731
71.51 0.00256918
71.52 0.00221512
71.53 0.00189304
71.54 0.00161003
71.55 0.00137222
71.56 0.00118473
71.57 0.00105151
71.58 0.000976677
71.59 0.000964646
71.6 0.00101127
71.61 0.00111528
71.62 0.0012742
71.63 0.00148442
71.64 0.00174125
71.65 0.00203907
71.66 0.0023714
71.67 0.0027323
71.68 0.00311229
71.69 0.00350234
71.7 0.00389409
71.71 0.00427917
71.72 0.00464935
71.73 0.00499672
71.74 0.0053138
71.75 0.00559344
71.76 0.00582553
71.77 0.00600835
71.78 0.00613783
71.79 0.00621091
71.8 0.00622564
71.81 0.00618117
71.82 0.00607777
71.83 0.00591682
71.84 0.00569836
71.85 0.00542634
71.86 0.00510797
71.87 0.00474861
71.88 0.00435434
71.89 0.00393178
71.9 0.00348799
71.91 0.00303029
71.92 0.00256617
71.93 0.00210379
71.94 0.00165097
71.95 0.00121459
71.96 0.000801096
71.97 0.000416356
71.98 6.55459e-05
71.99 -0.000246926
72 -0.000517495
72.01 -0.000742046
72.02 -0.000917252
72.03 -0.00104538
72.04 -0.0011268
72.05 -0.00116274
72.06 -0.00115533
72.07 -0.00110743
72.08 -0.00102263
72.09 -0.000905138
72.1 -0.000758023
72.11 -0.000588238
72.12 -0.000401819
72.13 -0.000204248
72.14 -9.84429e-07
72.15 0.000202658
72.16 0.000401624
72.17 0.000591232
72.18 0.000766993
72.19 0.000923838
72.2 0.00106002
72.21 0.00117336
72.22 0.00126241
72.23 0.00132649
72.24 0.00136563
72.25 0.00138064
72.26 0.00137297
72.27 0.00134377
72.28 0.00129646
72.29 0.00123511
72.3 0.0011634
72.31 0.00108526
72.32 0.0010048
72.33 0.00092618
72.34 0.000853499
72.35 0.000790686
72.36 0.000742977
72.37 0.000712548
72.38 0.000702076
72.39 0.00071367
72.4 0.000748815
72.41 0.000808321
72.42 0.000892296
72.43 0.00100014
72.44 0.00113133
72.45 0.00128387
72.46 0.00145375
72.47 0.00163762
72.48 0.00183162
72.49 0.00203154
72.5 0.00223283
72.51 0.00243079
72.52 0.00262062
72.53 0.00279623
72.54 0.0029535
72.55 0.00308848
72.56 0.00319748
72.57 0.00327734
72.58 0.00332558
72.59 0.00334044
72.6 0.00332097
72.61 0.00326627
72.62 0.00317574
72.63 0.00305373
72.64 0.00290303
72.65 0.00272729
72.66 0.00253095
72.67 0.00231917
72.68 0.00209777
72.69 0.00187306
72.7 0.00165244
72.71 0.00144359
72.72 0.00125346
72.73 0.00108909
72.74 0.000957253
72.75 0.000864338
72.76 0.00081619
72.77 0.000817959
72.78 0.000874449
72.79 0.000993763
72.8 0.00117322
72.81 0.00141372
72.82 0.00171493
72.83 0.00207528
72.84 0.00249192
72.85 0.00296076
72.86 0.00347647
72.87 0.00403415
72.88 0.00462515
72.89 0.00523895
72.9 0.0058661
72.91 0.00649656
72.92 0.00711982
72.93 0.00772514
72.94 0.00830171
72.95 0.00883888
72.96 0.00932113
72.97 0.00974194
72.98 0.0100929
72.99 0.0103661
73 0.0105549
73.01 0.0106538
73.02 0.010659
73.03 0.0105678
73.04 0.0103763
73.05 0.0100826
73.06 0.00969562
73.07 0.00921976
73.08 0.00866105
73.09 0.00802699
73.1 0.00732652
73.11 0.0065698
73.12 0.00576808
73.13 0.00493214
73.14 0.00407786
73.15 0.00321937
73.16 0.00237034
73.17 0.00154433
73.18 0.000754662
73.19 1.41284e-05
73.2 -0.000665226
73.21 -0.00127094
73.22 -0.00178715
73.23 -0.00221137
73.24 -0.00253693
73.25 -0.00275878
73.26 -0.00287367
73.27 -0.00288014
73.28 -0.00277859
73.29 -0.00257125
73.3 -0.00225681
73.31 -0.00184375
73.32 -0.00134376
73.33 -0.000766058
73.34 -0.000121184
73.35 0.000579242
73.36 0.00132271
73.37 0.00209604
73.38 0.00288566
73.39 0.00367671
73.4 0.00445429
73.41 0.00520515
73.42 0.00591672
73.43 0.00657725
73.44 0.0071761
73.45 0.00770386
73.46 0.00815256
73.47 0.00851215
73.48 0.00877629
73.49 0.0089471
73.5 0.00902381
73.51 0.00900746
73.52 0.00890082
73.53 0.00870839
73.54 0.00843623
73.55 0.00809186
73.56 0.00767983
73.57 0.00721529
73.58 0.00671017
73.59 0.0061761
73.6 0.00562509
73.61 0.00506931
73.62 0.00452083
73.63 0.00399136
73.64 0.00349307
73.65 0.0030392
73.66 0.00263658
73.67 0.00229309
73.68 0.00201519
73.69 0.00180785
73.7 0.00167444
73.71 0.00161667
73.72 0.00163458
73.73 0.00173106
73.74 0.00189972
73.75 0.00213315
73.76 0.00242474
73.77 0.00276661
73.78 0.00314979
73.79 0.00356438
73.8 0.00399979
73.81 0.00444491
73.82 0.00488717
73.83 0.0053146
73.84 0.00571624
73.85 0.00608162
73.86 0.00640106
73.87 0.00666583
73.88 0.00686834
73.89 0.00700232
73.9 0.00705923
73.91 0.00703582
73.92 0.00693425
73.93 0.00675498
73.94 0.00650016
73.95 0.00617358
73.96 0.00578061
73.97 0.0053281
73.98 0.00482424
73.99 0.00427564
74 0.00369713
74.01 0.00310028
74.02 0.00249692
74.03 0.00189914
74.04 0.00131904
74.05 0.000768505
74.06 0.000258945
74.07 -0.000196886
74.08 -0.000586466
74.09 -0.000904734
74.1 -0.00114474
74.11 -0.00130104
74.12 -0.00136987
74.13 -0.00134915
74.14 -0.00123864
74.15 -0.00103986
74.16 -0.000750389
74.17 -0.000380379
74.18 6.11951e-05
74.19 0.00056571
74.2 0.0011232
74.21 0.00172255
74.22 0.00235169
74.23 0.00299782
74.24 0.00364752
74.25 0.00428529
74.26 0.00489764
74.27 0.00547158
74.28 0.00599476
74.29 0.00645573
74.3 0.00684414
74.31 0.00715096
74.32 0.00736868
74.33 0.00748579
74.34 0.00749988
74.35 0.00741282
74.36 0.00722486
74.37 0.00693819
74.38 0.00655694
74.39 0.00608711
74.4 0.00553644
74.41 0.00491421
74.42 0.00422694
74.43 0.00349345
74.44 0.00272712
74.45 0.00194202
74.46 0.00115271
74.47 0.000373962
74.48 -0.00037955
74.49 -0.00109349
74.5 -0.00175136
74.51 -0.0023381
74.52 -0.00284522
74.53 -0.00326271
74.54 -0.00358215
74.55 -0.00379687
74.56 -0.00390207
74.57 -0.00389493
74.58 -0.00377465
74.59 -0.0035337
74.6 -0.0031835
74.61 -0.00273127
74.62 -0.00218454
74.63 -0.00155255
74.64 -0.000846067
74.65 -7.7189e-05
74.66 0.00074087
74.67 0.00159453
74.68 0.0024683
74.69 0.00334484
74.7 0.00420912
74.71 0.00504641
74.72 0.00584251
74.73 0.00658408
74.74 0.00725881
74.75 0.0078557
74.76 0.00835897
74.77 0.00876332
74.78 0.00906568
74.79 0.00926233
74.8 0.00935151
74.81 0.00933348
74.82 0.00921044
74.83 0.00898654
74.84 0.00866686
74.85 0.00825358
74.86 0.00776419
74.87 0.00720959
74.88 0.00660178
74.89 0.00595365
74.9 0.00527869
74.91 0.00459077
74.92 0.00390386
74.93 0.0032332
74.94 0.00259371
74.95 0.00199717
74.96 0.00145511
74.97 0.000977912
74.98 0.00057458
74.99 0.000252597
75 1.77946e-05
75.01 -0.000125747
75.02 -0.000167383
75.03 -0.000114806
75.04 2.96357e-05
75.05 0.000262318
75.06 0.000577919
75.07 0.000969538
75.08 0.00142883
75.09 0.0019462
75.1 0.00251215
75.11 0.00311463
75.12 0.00373857
75.13 0.00437133
75.14 0.00500019
75.15 0.00561257
75.16 0.00619627
75.17 0.00673969
75.18 0.00723208
75.19 0.00765856
75.2 0.00801314
75.21 0.00829023
75.22 0.00848447
75.23 0.00859206
75.24 0.00861083
75.25 0.00854029
75.26 0.00838158
75.27 0.00813595
75.28 0.00780366
75.29 0.00739722
75.3 0.00692396
75.31 0.00639233
75.32 0.00581174
75.33 0.00519235
75.34 0.0045449
75.35 0.00388046
75.36 0.00321057
75.37 0.00254778
75.38 0.00190301
75.39 0.00128646
75.4 0.000707651
75.41 0.000175189
75.42 -0.000303335
75.43 -0.000721488
75.44 -0.00107389
75.45 -0.0013503
75.46 -0.00155467
75.47 -0.00168624
75.48 -0.00174567
75.49 -0.00173493
75.5 -0.00165727
75.51 -0.00151711
75.52 -0.00131996
75.53 -0.00107042
75.54 -0.000776262
75.55 -0.000448035
75.56 -9.40913e-05
75.57 0.000276987
75.58 0.000656573
75.59 0.00103617
75.6 0.00140758
75.61 0.00176307
75.62 0.00209309
75.63 0.00239243
75.64 0.00265608
75.65 0.00287975
75.66 0.00306015
75.67 0.00319513
75.68 0.00328363
75.69 0.00332571
75.7 0.00332137
75.71 0.00327141
75.72 0.00318225
75.73 0.00305815
75.74 0.00290408
75.75 0.00272568
75.76 0.00252903
75.77 0.00232059
75.78 0.00210702
75.79 0.00189557
75.8 0.00169345
75.81 0.00150686
75.82 0.00134164
75.83 0.00120308
75.84 0.00109582
75.85 0.00102374
75.86 0.000989874
75.87 0.00099685
75.88 0.0010489
75.89 0.00114265
75.9 0.0012772
75.91 0.00145068
75.92 0.00166036
75.93 0.00190271
75.94 0.00217343
75.95 0.00246759
75.96 0.00278035
75.97 0.00310493
75.98 0.00343437
75.99 0.00376233
76 0.0040825
76.01 0.00438872
76.02 0.00467509
76.03 0.00493609
76.04 0.00516674
76.05 0.00535914
76.06 0.00551241
76.07 0.00562393
76.08 0.00569177
76.09 0.00571487
76.1 0.00569303
76.11 0.00562692
76.12 0.00551805
76.13 0.00536744
76.14 0.00517771
76.15 0.00495514
76.16 0.00470418
76.17 0.00442978
76.18 0.00413722
76.19 0.00383205
76.2 0.00351993
76.21 0.00320655
76.22 0.0028982
76.23 0.00260049
76.24 0.00231822
76.25 0.00205587
76.26 0.00181735
76.27 0.00160598
76.28 0.00142437
76.29 0.00127444
76.3 0.00115799
76.31 0.00107721
76.32 0.00102909
76.33 0.00101235
76.34 0.00102502
76.35 0.00106452
76.36 0.00112766
76.37 0.0012108
76.38 0.00130986
76.39 0.0014209
76.4 0.00153853
76.41 0.00165768
76.42 0.00177375
76.43 0.00188225
76.44 0.00197893
76.45 0.00205992
76.46 0.00212174
76.47 0.00216132
76.48 0.00217398
76.49 0.00216014
76.5 0.00211884
76.51 0.00204982
76.52 0.0019535
76.53 0.001831
76.54 0.00168408
76.55 0.00151513
76.56 0.00132644
76.57 0.00112185
76.58 0.000906287
76.59 0.000684073
76.6 0.000459749
76.61 0.000238
76.62 2.35514e-05
76.63 -0.000178925
76.64 -0.000364911
76.65 -0.000528081
76.66 -0.000665684
76.67 -0.000774551
76.68 -0.000851763
76.69 -0.000894959
76.7 -0.000902381
76.71 -0.000872901
76.72 -0.000806045
76.73 -0.000700988
76.74 -0.000557321
76.75 -0.000379129
76.76 -0.000168604
76.77 7.15305e-05
76.78 0.00033807
76.79 0.000627405
76.8 0.00093559
76.81 0.00125843
76.82 0.00159194
76.83 0.00193078
76.84 0.00227027
76.85 0.00260609
76.86 0.00293413
76.87 0.00325054
76.88 0.0035518
76.89 0.0038348
76.9 0.00409658
76.91 0.00433315
76.92 0.00454473
76.93 0.00473029
76.94 0.00488933
76.95 0.00502189
76.96 0.00512848
76.97 0.0052101
76.98 0.00526815
76.99 0.00530342
77 0.00531849
77.01 0.00531669
77.02 0.00530058
77.03 0.00527281
77.04 0.00523606
77.05 0.00519295
77.06 0.00514601
77.07 0.00509756
77.08 0.00504991
77.09 0.00500492
77.1 0.00496398
77.11 0.0049281
77.12 0.00489792
77.13 0.00487366
77.14 0.00485517
77.15 0.00484189
77.16 0.00483298
77.17 0.00482708
77.18 0.0048223
77.19 0.00481679
77.2 0.0048085
77.21 0.00479526
77.22 0.00477486
77.23 0.00474507
77.24 0.00470376
77.25 0.00464774
77.26 0.00457587
77.27 0.0044869
77.28 0.00437971
77.29 0.00425351
77.3 0.00410792
77.31 0.00394299
77.32 0.00375921
77.33 0.00355718
77.34 0.00333761
77.35 0.00310372
77.36 0.00285783
77.37 0.0026026
77.38 0.00234101
77.39 0.00207629
77.4 0.00181187
77.41 0.00155131
77.42 0.00129891
77.43 0.00105848
77.44 0.000833243
77.45 0.000626508
77.46 0.000441342
77.47 0.000280499
77.48 0.000146366
77.49 4.09107e-05
77.5 -3.42088e-05
77.51 -7.53035e-05
77.52 -8.47393e-05
77.53 -6.26968e-05
77.54 -9.89289e-06
77.55 7.24303e-05
77.56 0.000182528
77.57 0.000318184
77.58 0.000476755
77.59 0.000655946
77.6 0.00085205
77.61 0.00106044
77.62 0.00127732
77.63 0.00149878
77.64 0.00172091
77.65 0.00193986
77.66 0.0021519
77.67 0.00235351
77.68 0.00254007
77.69 0.00270946
77.7 0.00285939
77.71 0.00298787
77.72 0.00309337
77.73 0.00317486
77.74 0.0032318
77.75 0.00326415
77.76 0.00327169
77.77 0.00325465
77.78 0.00321606
77.79 0.00315775
77.8 0.00308189
77.81 0.00299093
77.82 0.00288752
77.83 0.00277446
77.84 0.00265463
77.85 0.00253085
77.86 0.00240639
77.87 0.00228399
77.88 0.0021661
77.89 0.0020549
77.9 0.00195228
77.91 0.00185974
77.92 0.00177844
77.93 0.00170927
77.94 0.00165337
77.95 0.00160959
77.96 0.00157733
77.97 0.00155563
77.98 0.00154316
77.99 0.00153831
78 0.0015392
78.01 0.00154378
78.02 0.00154976
78.03 0.00155458
78.04 0.00155591
78.05 0.00155153
78.06 0.00153941
78.07 0.00151769
78.08 0.00148481
78.09 0.0014395
78.1 0.00138088
78.11 0.00130717
78.12 0.00121962
78.13 0.00111876
78.14 0.00100551
78.15 0.000881246
78.16 0.000747749
78.17 0.00060719
78.18 0.000462074
78.19 0.000315252
78.2 0.00017016
78.21 3.00802e-05
78.22 -0.000101718
78.23 -0.000221986
78.24 -0.000327569
78.25 -0.000415495
78.26 -0.000483051
78.27 -0.000527858
78.28 -0.000545933
78.29 -0.000537164
78.3 -0.000501153
78.31 -0.000437636
78.32 -0.000346955
78.33 -0.00023008
78.34 -8.86031e-05
78.35 7.52635e-05
78.36 0.000259064
78.37 0.000459857
78.38 0.000672283
78.39 0.000891971
78.4 0.00111421
78.41 0.00133405
78.42 0.00154639
78.43 0.00174608
78.44 0.00192803
78.45 0.00208567
78.46 0.0022145
78.47 0.00231117
78.48 0.00237207
78.49 0.00239418
78.5 0.00237517
78.51 0.00231348
78.52 0.00220836
78.53 0.00205965
78.54 0.00186502
78.55 0.0016304
78.56 0.00135873
78.57 0.0010538
78.58 0.000720192
78.59 0.000363213
78.6 -1.11991e-05
78.61 -0.000396566
78.62 -0.000785822
78.63 -0.00117079
78.64 -0.00154392
78.65 -0.0018978
78.66 -0.00222517
78.67 -0.00251909
78.68 -0.00277299
78.69 -0.00298091
78.7 -0.00313757
78.71 -0.00323344
78.72 -0.00326903
78.73 -0.00324255
78.74 -0.00315281
78.75 -0.00299972
78.76 -0.00278437
78.77 -0.00250902
78.78 -0.00217708
78.79 -0.00179169
78.8 -0.0013576
78.81 -0.000884892
78.82 -0.000381175
78.83 0.000145215
78.84 0.000685365
78.85 0.00122993
78.86 0.0017693
78.87 0.00229377
78.88 0.00279132
78.89 0.00325273
78.9 0.00366983
78.91 0.00403441
78.92 0.00433908
78.93 0.00457736
78.94 0.00474385
78.95 0.00483432
78.96 0.00484466
78.97 0.0047679
78.98 0.0046105
78.99 0.00437395
79 0.00406114
79.01 0.00367632
79.02 0.00322501
79.03 0.00271399
79.04 0.00215111
79.05 0.00154343
79.06 0.000902467
79.07 0.000240395
79.08 -0.000431876
79.09 -0.00110318
79.1 -0.00176229
79.11 -0.00239811
79.12 -0.00299989
79.13 -0.00355737
79.14 -0.00405519
79.15 -0.00448911
79.16 -0.00485184
79.17 -0.00513721
79.18 -0.00534038
79.19 -0.00545791
79.2 -0.00548781
79.21 -0.00542961
79.22 -0.00528115
79.23 -0.00504393
79.24 -0.00472721
79.25 -0.00433671
79.26 -0.00387942
79.27 -0.00336349
79.28 -0.00279808
79.29 -0.00219319
79.3 -0.00155951
79.31 -0.000907745
79.32 -0.000251528
79.33 0.000397331
79.34 0.00102747
79.35 0.0016279
79.36 0.00218818
79.37 0.00269863
79.38 0.00315045
79.39 0.00353427
79.4 0.0038394
79.41 0.00406578
79.42 0.00420993
79.43 0.00426984
79.44 0.00424498
79.45 0.00413634
79.46 0.00394638
79.47 0.00367897
79.48 0.00333528
79.49 0.00292482
79.5 0.00245778
79.51 0.00194296
79.52 0.00138996
79.53 0.000808971
79.54 0.00021063
79.55 -0.000394193
79.56 -0.000994471
79.57 -0.00157718
79.58 -0.00213255
79.59 -0.00265084
79.6 -0.00312304
79.61 -0.00354105
79.62 -0.00389776
79.63 -0.00418725
79.64 -0.00440482
79.65 -0.00454348
79.66 -0.00460101
79.67 -0.00458075
79.68 -0.00448378
79.69 -0.00431254
79.7 -0.00407075
79.71 -0.00376335
79.72 -0.00339641
79.73 -0.00297697
79.74 -0.00250989
79.75 -0.0020081
79.76 -0.00148124
79.77 -0.000938958
79.78 -0.000391032
79.79 0.000152762
79.8 0.000682835
79.81 0.00118995
79.82 0.00166415
79.83 0.00209523
79.84 0.00247824
79.85 0.00280707
79.86 0.00307669
79.87 0.00328317
79.88 0.00342375
79.89 0.00349689
79.9 0.00350229
79.91 0.0034363
79.92 0.00330449
79.93 0.00311194
79.94 0.00286318
79.95 0.00256367
79.96 0.00221971
79.97 0.00183832
79.98 0.00142709
79.99 0.000993863
80 0.000546992
80.01 9.65805e-05
80.02 -0.000348946
80.03 -0.000781362
80.04 -0.00119278
80.05 -0.00157579
80.06 -0.00192357
80.07 -0.00223002
80.08 -0.00248702
80.09 -0.00269046
80.1 -0.00283899
80.11 -0.00293038
80.12 -0.00296344
80.13 -0.00293802
80.14 -0.002855
80.15 -0.00271625
80.16 -0.00252459
80.17 -0.00227955
80.18 -0.00199074
80.19 -0.00166361
80.2 -0.00130418
80.21 -0.00091895
80.22 -0.000514822
80.23 -9.89484e-05
80.24 0.000321376
80.25 0.000738427
80.26 0.00114396
80.27 0.00153125
80.28 0.00189372
80.29 0.00222521
80.3 0.00252012
80.31 0.00277344
80.32 0.00298085
80.33 0.00313875
80.34 0.00324004
80.35 0.0032859
80.36 0.00327614
80.37 0.00321055
80.38 0.00308971
80.39 0.00291496
80.4 0.00268838
80.41 0.00241274
80.42 0.00209044
80.43 0.00172397
80.44 0.0013211
80.45 0.000886793
80.46 0.000426332
80.47 -5.47425e-05
80.48 -0.000550729
80.49 -0.00105584
80.5 -0.00156426
80.51 -0.00206974
80.52 -0.00256616
80.53 -0.00304823
80.54 -0.00351089
80.55 -0.00394935
80.56 -0.00435921
80.57 -0.00473647
80.58 -0.00507753
80.59 -0.00537895
80.6 -0.00563456
80.61 -0.00584575
80.62 -0.00601096
80.63 -0.0061291
80.64 -0.00619955
80.65 -0.0062222
80.66 -0.00619734
80.67 -0.00612571
80.68 -0.00600639
80.69 -0.00584119
80.7 -0.00563421
80.71 -0.0053878
80.72 -0.00510455
80.73 -0.00478737
80.74 -0.0044394
80.75 -0.004064
80.76 -0.00366472
80.77 -0.00324388
80.78 -0.00280729
80.79 -0.00235909
80.8 -0.00190336
80.81 -0.00144421
80.82 -0.000985801
80.83 -0.000532275
80.84 -8.77473e-05
80.85 0.000343176
80.86 0.000755552
80.87 0.00114642
80.88 0.00151211
80.89 0.00184916
80.9 0.0021543
80.91 0.00242453
80.92 0.00265712
80.93 0.00284965
80.94 0.00299692
80.95 0.00309911
80.96 0.003156
80.97 0.00316678
80.98 0.00313111
80.99 0.00304907
81 0.00292124
81.01 0.00274867
81.02 0.00253222
81.03 0.00227162
81.04 0.00197278
81.05 0.00163875
81.06 0.00127297
81.07 0.00087928
81.08 0.000461881
81.09 2.52865e-05
81.1 -0.00042572
81.11 -0.000886365
81.12 -0.0013507
81.13 -0.00181311
81.14 -0.00226832
81.15 -0.00271108
81.16 -0.00313629
81.17 -0.003539
81.18 -0.00391455
81.19 -0.00425853
81.2 -0.00456331
81.21 -0.00482849
81.22 -0.00505111
81.23 -0.00522877
81.24 -0.00535966
81.25 -0.00544255
81.26 -0.00547685
81.27 -0.00546262
81.28 -0.00539866
81.29 -0.00528589
81.3 -0.00512896
81.31 -0.00493051
81.32 -0.00469373
81.33 -0.0044223
81.34 -0.00412032
81.35 -0.00379228
81.36 -0.00344298
81.37 -0.00307656
81.38 -0.00269979
81.39 -0.00231817
81.4 -0.00193696
81.41 -0.00156135
81.42 -0.00119632
81.43 -0.000846636
81.44 -0.000516741
81.45 -0.000211386
81.46 6.41914e-05
81.47 0.000308666
81.48 0.000519531
81.49 0.00069484
81.5 0.000833226
81.51 0.000933909
81.52 0.0009967
81.53 0.00102199
81.54 0.00100848
81.55 0.000959113
81.56 0.000877095
81.57 0.000764948
81.58 0.000625582
81.59 0.000462237
81.6 0.000278418
81.61 7.78338e-05
81.62 -0.000135751
81.63 -0.000358723
81.64 -0.000586132
81.65 -0.000814161
81.66 -0.00103914
81.67 -0.00125758
81.68 -0.00146628
81.69 -0.00166231
81.7 -0.00184306
81.71 -0.0020054
81.72 -0.00214733
81.73 -0.00226837
81.74 -0.00236759
81.75 -0.00244451
81.76 -0.00249903
81.77 -0.00253145
81.78 -0.00254243
81.79 -0.00253299
81.8 -0.00250288
81.81 -0.0024554
81.82 -0.00239252
81.83 -0.00231625
81.84 -0.00222875
81.85 -0.00213222
81.86 -0.00202894
81.87 -0.00192115
81.88 -0.00181109
81.89 -0.00170113
81.9 -0.00159338
81.91 -0.00148972
81.92 -0.00139184
81.93 -0.00130127
81.94 -0.00121933
81.95 -0.00114716
81.96 -0.00108571
81.97 -0.0010366
81.98 -0.000999862
81.99 -0.00097561
82 -0.000964059
82.01 -0.000965296
82.02 -0.000979296
82.03 -0.00100594
82.04 -0.00104506
82.05 -0.0010966
82.06 -0.001161
82.07 -0.00123702
82.08 -0.00132439
82.09 -0.00142283
82.1 -0.00153208
82.11 -0.00165192
82.12 -0.00178213
82.13 -0.0019225
82.14 -0.00207339
82.15 -0.00223439
82.16 -0.00240488
82.17 -0.00258459
82.18 -0.00277318
82.19 -0.00297021
82.2 -0.00317517
82.21 -0.00338739
82.22 -0.00360608
82.23 -0.00383068
82.24 -0.00405942
82.25 -0.00429092
82.26 -0.00452363
82.27 -0.00475579
82.28 -0.00498547
82.29 -0.00521054
82.3 -0.00542875
82.31 -0.00563718
82.32 -0.00583286
82.33 -0.00601371
82.34 -0.0061771
82.35 -0.00632045
82.36 -0.00644123
82.37 -0.00653704
82.38 -0.00660565
82.39 -0.00664506
82.4 -0.00665093
82.41 -0.00662386
82.42 -0.00656336
82.43 -0.00646892
82.44 -0.0063405
82.45 -0.00617854
82.46 -0.00598401
82.47 -0.00575837
82.48 -0.00550296
82.49 -0.00521947
82.5 -0.00491302
82.51 -0.00458719
82.52 -0.004246
82.53 -0.00389382
82.54 -0.00353534
82.55 -0.0031755
82.56 -0.00281941
82.57 -0.00247318
82.58 -0.00214225
82.59 -0.00183143
82.6 -0.00154559
82.61 -0.00128932
82.62 -0.00106684
82.63 -0.000881894
82.64 -0.000737712
82.65 -0.000637363
82.66 -0.000586293
82.67 -0.000581854
82.68 -0.000624333
82.69 -0.00071323
82.7 -0.000847247
82.71 -0.0010243
82.72 -0.00124152
82.73 -0.00149532
82.74 -0.00178275
82.75 -0.00209807
82.76 -0.00243427
82.77 -0.00278533
82.78 -0.0031449
82.79 -0.00350639
82.8 -0.0038631
82.81 -0.00420832
82.82 -0.00453547
82.83 -0.00483549
82.84 -0.005104
82.85 -0.00533576
82.86 -0.00552599
82.87 -0.00567062
82.88 -0.00576634
82.89 -0.00581071
82.9 -0.00580221
82.91 -0.00573844
82.92 -0.00561854
82.93 -0.00544734
82.94 -0.00522739
82.95 -0.00496216
82.96 -0.00465599
82.97 -0.00431399
82.98 -0.00394203
82.99 -0.00354656
83 -0.00313386
83.01 -0.00271293
83.02 -0.0022917
83.03 -0.00187787
83.04 -0.00147905
83.05 -0.00110266
83.06 -0.000755746
83.07 -0.000444897
83.08 -0.00017696
83.09 3.96029e-05
83.1 0.000203845
83.11 0.000312484
83.12 0.000363235
83.13 0.000354865
83.14 0.000287216
83.15 0.00016122
83.16 -2.11153e-05
83.17 -0.000259573
83.18 -0.000548372
83.19 -0.000880394
83.2 -0.00124965
83.21 -0.00164945
83.22 -0.00207254
83.23 -0.00251119
83.24 -0.00295739
83.25 -0.00340295
83.26 -0.00383814
83.27 -0.0042552
83.28 -0.0046465
83.29 -0.00500494
83.3 -0.00532402
83.31 -0.00559799
83.32 -0.00582198
83.33 -0.00599203
83.34 -0.00610279
83.35 -0.00615174
83.36 -0.00614146
83.37 -0.00607265
83.38 -0.00594716
83.39 -0.00576789
83.4 -0.0055388
83.41 -0.00526479
83.42 -0.00495162
83.43 -0.00460372
83.44 -0.00423119
83.45 -0.00384213
83.46 -0.0034445
83.47 -0.00304642
83.48 -0.00265593
83.49 -0.00228091
83.5 -0.00192887
83.51 -0.00160782
83.52 -0.00132625
83.53 -0.00108745
83.54 -0.000895897
83.55 -0.000755059
83.56 -0.000667321
83.57 -0.00063394
83.58 -0.000655012
83.59 -0.00072947
83.6 -0.000858256
83.61 -0.00103561
83.62 -0.00125548
83.63 -0.00151237
83.64 -0.00179992
83.65 -0.00211111
83.66 -0.00243836
83.67 -0.00277371
83.68 -0.00310885
83.69 -0.0034341
83.7 -0.00374147
83.71 -0.00402323
83.72 -0.00427211
83.73 -0.00448152
83.74 -0.00464567
83.75 -0.0047597
83.76 -0.0048198
83.77 -0.00482037
83.78 -0.00476033
83.79 -0.00464232
83.8 -0.00446777
83.81 -0.00423939
83.82 -0.00396116
83.83 -0.00363825
83.84 -0.00327696
83.85 -0.00288459
83.86 -0.00246806
83.87 -0.00203912
83.88 -0.00160745
83.89 -0.00118302
83.9 -0.000775954
83.91 -0.000396335
83.92 -5.40275e-05
83.93 0.000241528
83.94 0.000479266
83.95 0.000648738
83.96 0.000746517
83.97 0.000766945
83.98 0.000705654
83.99 0.000559666
84 0.000327484
84.01 9.14662e-06
84.02 -0.000393743
84.03 -0.000883701
84.04 -0.00145089
84.05 -0.00208713
84.06 -0.00278447
84.07 -0.00353372
84.08 -0.00432452
84.09 -0.00514556
84.1 -0.00598472
84.11 -0.00682912
84.12 -0.00766378
84.13 -0.00847514
84.14 -0.00924999
84.15 -0.00997546
84.16 -0.0106392
84.17 -0.0112296
84.18 -0.0117361
84.19 -0.012149
84.2 -0.0124539
84.21 -0.0126456
84.22 -0.0127232
84.23 -0.0126833
84.24 -0.0125247
84.25 -0.0122477
84.26 -0.0118545
84.27 -0.011349
84.28 -0.0107365
84.29 -0.0100164
84.3 -0.0092074
84.31 -0.00831988
84.32 -0.00736545
84.33 -0.00635669
84.34 -0.00530697
84.35 -0.00423026
84.36 -0.00314089
84.37 -0.00205406
84.38 -0.000986105
84.39 4.91706e-05
84.4 0.00103833
84.41 0.0019687
84.42 0.00282856
84.43 0.00360731
84.44 0.00429563
84.45 0.0048856
84.46 0.0053617
84.47 0.00572635
84.48 0.00597799
84.49 0.00611545
84.5 0.00613924
84.51 0.00605145
84.52 0.00585577
84.53 0.00555732
84.54 0.00516019
84.55 0.00466964
84.56 0.00410113
84.57 0.00346461
84.58 0.00277075
84.59 0.00203078
84.6 0.00125626
84.61 0.000458932
84.62 -0.000349494
84.63 -0.00115669
84.64 -0.0019504
84.65 -0.0027202
84.66 -0.00345632
84.67 -0.00414984
84.68 -0.00479279
84.69 -0.00537823
84.7 -0.00590034
84.71 -0.00635358
84.72 -0.00672923
84.73 -0.00703096
84.74 -0.00725796
84.75 -0.00741056
84.76 -0.00749018
84.77 -0.00749928
84.78 -0.00744122
84.79 -0.00732023
84.8 -0.00713857
84.81 -0.00690307
84.82 -0.00662236
84.83 -0.00630293
84.84 -0.00595152
84.85 -0.00557493
84.86 -0.00517997
84.87 -0.00477329
84.88 -0.00436135
84.89 -0.00395083
84.9 -0.00354777
84.91 -0.00315725
84.92 -0.00278384
84.93 -0.00243152
84.94 -0.00210365
84.95 -0.00180297
84.96 -0.00153161
84.97 -0.00129223
84.98 -0.00108651
84.99 -0.000912881
85 -0.000771101
85.01 -0.000660474
85.02 -0.000579914
85.03 -0.000528008
85.04 -0.000503074
85.05 -0.000503225
85.06 -0.000528007
85.07 -0.000573798
85.08 -0.000638027
85.09 -0.000718594
85.1 -0.000813483
85.11 -0.000920794
85.12 -0.00103877
85.13 -0.00116583
85.14 -0.0013007
85.15 -0.00144241
85.16 -0.00158941
85.17 -0.00174089
85.18 -0.00189622
85.19 -0.00205487
85.2 -0.00221646
85.21 -0.00238067
85.22 -0.00254723
85.23 -0.00271602
85.24 -0.0028867
85.25 -0.00305888
85.26 -0.00323217
85.27 -0.00340607
85.28 -0.00357997
85.29 -0.0037531
85.3 -0.00392456
85.31 -0.00409326
85.32 -0.00425754
85.33 -0.00441626
85.34 -0.00456791
85.35 -0.0047109
85.36 -0.00484355
85.37 -0.00496413
85.38 -0.00507092
85.39 -0.00516223
85.4 -0.0052356
85.41 -0.00528926
85.42 -0.00532277
85.43 -0.00533501
85.44 -0.00532512
85.45 -0.00529252
85.46 -0.0052369
85.47 -0.0051583
85.48 -0.00505707
85.49 -0.00493217
85.5 -0.00478641
85.51 -0.0046215
85.52 -0.00443922
85.53 -0.00424167
85.54 -0.00403121
85.55 -0.00381043
85.56 -0.00358211
85.57 -0.00334914
85.58 -0.00311483
85.59 -0.00288249
85.6 -0.00265516
85.61 -0.00243575
85.62 -0.00222705
85.63 -0.00203162
85.64 -0.00185181
85.65 -0.00168965
85.66 -0.00154823
85.67 -0.00142818
85.68 -0.00132981
85.69 -0.00125354
85.7 -0.00119938
85.71 -0.0011669
85.72 -0.00115529
85.73 -0.00116331
85.74 -0.00118962
85.75 -0.00123317
85.76 -0.00129029
85.77 -0.0013585
85.78 -0.0014352
85.79 -0.00151766
85.8 -0.00160311
85.81 -0.00168883
85.82 -0.00177215
85.83 -0.00185021
85.84 -0.00192049
85.85 -0.00198127
85.86 -0.0020309
85.87 -0.00206811
85.88 -0.00209199
85.89 -0.00210209
85.9 -0.00209836
85.91 -0.00208119
85.92 -0.00205035
85.93 -0.00200837
85.94 -0.00195698
85.95 -0.00189823
85.96 -0.00183445
85.97 -0.00176822
85.98 -0.00170232
85.99 -0.00163962
86 -0.00158342
86.01 -0.00153717
86.02 -0.0015033
86.03 -0.00148445
86.04 -0.00148301
86.05 -0.00150108
86.06 -0.00154038
86.07 -0.00160225
86.08 -0.00168758
86.09 -0.00179857
86.1 -0.00193367
86.11 -0.00209169
86.12 -0.0022714
86.13 -0.00247106
86.14 -0.00268845
86.15 -0.00292093
86.16 -0.00316545
86.17 -0.00341874
86.18 -0.00367696
86.19 -0.00393561
86.2 -0.00419067
86.21 -0.00443809
86.22 -0.00467383
86.23 -0.00489403
86.24 -0.00509497
86.25 -0.00527325
86.26 -0.00542408
86.27 -0.00554525
86.28 -0.00563557
86.29 -0.00569352
86.3 -0.00571809
86.31 -0.0057089
86.32 -0.00566613
86.33 -0.00559057
86.34 -0.00548341
86.35 -0.00534436
86.36 -0.00517875
86.37 -0.00498957
86.38 -0.00478024
86.39 -0.00455449
86.4 -0.00431631
86.41 -0.00406985
86.42 -0.00381938
86.43 -0.00356937
86.44 -0.00332453
86.45 -0.00308878
86.46 -0.00286583
86.47 -0.00265904
86.48 -0.00247136
86.49 -0.00230529
86.5 -0.00216281
86.51 -0.00204537
86.52 -0.00195607
86.53 -0.00189318
86.54 -0.00185602
86.55 -0.00184362
86.56 -0.00185446
86.57 -0.00188654
86.58 -0.00193741
86.59 -0.00200426
86.6 -0.00208426
86.61 -0.00217397
86.62 -0.0022691
86.63 -0.00236609
86.64 -0.00246145
86.65 -0.00255182
86.66 -0.00263408
86.67 -0.0027054
86.68 -0.0027633
86.69 -0.00280459
86.7 -0.00282831
86.71 -0.00283398
86.72 -0.00282128
86.73 -0.00279046
86.74 -0.00274233
86.75 -0.00267828
86.76 -0.00260021
86.77 -0.00251036
86.78 -0.00241129
86.79 -0.00230714
86.8 -0.00220139
86.81 -0.00209769
86.82 -0.00199977
86.83 -0.00191132
86.84 -0.00183591
86.85 -0.00177688
86.86 -0.00173842
86.87 -0.00172314
86.88 -0.00173219
86.89 -0.0017669
86.9 -0.00182799
86.91 -0.00191543
86.92 -0.00202846
86.93 -0.00216557
86.94 -0.00232447
86.95 -0.00250355
86.96 -0.00269695
86.97 -0.00290012
86.98 -0.00310796
86.99 -0.00331491
87 -0.00351503
87.01 -0.00370211
87.02 -0.00386983
87.03 -0.00401062
87.04 -0.00411697
87.05 -0.00418453
87.06 -0.00420794
87.07 -0.00418238
87.08 -0.00410379
87.09 -0.00396892
87.1 -0.00377546
87.11 -0.00352213
87.12 -0.00320419
87.13 -0.00282652
87.14 -0.00239261
87.15 -0.00190613
87.16 -0.0013719
87.17 -0.000795929
87.18 -0.000185264
87.19 0.000452045
87.2 0.00110724
87.21 0.0017699
87.22 0.00242845
87.23 0.00307212
87.24 0.0036899
87.25 0.00427078
87.26 0.00480392
87.27 0.00527883
87.28 0.00568561
87.29 0.00600982
87.3 0.00624471
87.31 0.00638607
87.32 0.00642839
87.33 0.00636764
87.34 0.0062013
87.35 0.00592852
87.36 0.00555013
87.37 0.00506801
87.38 0.00447904
87.39 0.00379858
87.4 0.00303462
87.41 0.00219664
87.42 0.00129554
87.43 0.000343443
87.44 -0.000646459
87.45 -0.0016601
87.46 -0.00268246
87.47 -0.0036964
87.48 -0.00468626
87.49 -0.00563686
87.5 -0.00653338
87.51 -0.00736167
87.52 -0.00810841
87.53 -0.0087614
87.54 -0.00930975
87.55 -0.00973363
87.56 -0.0100337
87.57 -0.0102056
87.58 -0.0102458
87.59 -0.0101529
87.6 -0.00992758
87.61 -0.00957247
87.62 -0.00909239
87.63 -0.00849079
87.64 -0.00777393
87.65 -0.00696013
87.66 -0.00606179
87.67 -0.00509267
87.68 -0.0040677
87.69 -0.0030027
87.7 -0.00191415
87.71 -0.000818932
87.72 0.000264038
87.73 0.00131672
87.74 0.00232317
87.75 0.00326794
87.76 0.00413659
87.77 0.00491597
87.78 0.0055944
87.79 0.00616186
87.8 0.00660829
87.81 0.00691897
87.82 0.00709984
87.83 0.00714937
87.84 0.00706824
87.85 0.00685922
87.86 0.00652719
87.87 0.00607901
87.88 0.00552341
87.89 0.00486624
87.9 0.00412251
87.91 0.00330963
87.92 0.00244218
87.93 0.00153554
87.94 0.000605572
87.95 -0.000331602
87.96 -0.00125991
87.97 -0.00216358
87.98 -0.00302232
87.99 -0.00382453
88 -0.00455722
88.01 -0.00520874
88.02 -0.00576892
88.03 -0.00622933
88.04 -0.0065833
88.05 -0.0068261
88.06 -0.00695049
88.07 -0.00695397
88.08 -0.00684457
88.09 -0.00662593
88.1 -0.00630353
88.11 -0.00588458
88.12 -0.00537788
88.13 -0.00479365
88.14 -0.00414333
88.15 -0.00343622
88.16 -0.00269025
88.17 -0.00192009
88.18 -0.00113982
88.19 -0.000363473
88.2 0.000395193
88.21 0.00112294
88.22 0.00180725
88.23 0.00243506
88.24 0.00299184
88.25 0.00347288
88.26 0.00387094
88.27 0.00418039
88.28 0.00439728
88.29 0.00451938
88.3 0.00454623
88.31 0.00447907
88.32 0.00431542
88.33 0.00406337
88.34 0.00373218
88.35 0.00332954
88.36 0.00286434
88.37 0.00234642
88.38 0.00178644
88.39 0.00119567
88.4 0.000585654
88.41 -3.12162e-05
88.42 -0.000641774
88.43 -0.00123467
88.44 -0.0017991
88.45 -0.00232496
88.46 -0.00280306
88.47 -0.00322524
88.48 -0.00358452
88.49 -0.00387177
88.5 -0.0040823
88.51 -0.00421683
88.52 -0.00427427
88.53 -0.00425498
88.54 -0.00416073
88.55 -0.00399464
88.56 -0.00376109
88.57 -0.00346563
88.58 -0.0031107
88.59 -0.00270888
88.6 -0.00226893
88.61 -0.00179967
88.62 -0.00131024
88.63 -0.000809929
88.64 -0.000307967
88.65 0.000186636
88.66 0.000664498
88.67 0.00111597
88.68 0.00153498
88.69 0.00191528
88.7 0.00225157
88.71 0.00253966
88.72 0.00277646
88.73 0.00296007
88.74 0.00308978
88.75 0.00316237
88.76 0.00318234
88.77 0.0031539
88.78 0.00308101
88.79 0.00296849
88.8 0.00282197
88.81 0.00264769
88.82 0.00245239
88.83 0.00224307
88.84 0.00202734
88.85 0.00181348
88.86 0.00160856
88.87 0.00141932
88.88 0.00125201
88.89 0.00111228
88.9 0.00100501
88.91 0.000934251
88.92 0.000905446
88.93 0.000920157
88.94 0.000977639
88.95 0.00107763
88.96 0.0012188
88.97 0.00139879
88.98 0.00161423
88.99 0.00186083
89 0.00213349
89.01 0.00242763
89.02 0.0027343
89.03 0.00304649
89.04 0.0033569
89.05 0.00365808
89.06 0.00394262
89.07 0.00420327
89.08 0.00443313
89.09 0.00462404
89.1 0.00476893
89.11 0.00486501
89.12 0.00490831
89.13 0.00489584
89.14 0.00482564
89.15 0.00469689
89.16 0.0045099
89.17 0.00426611
89.18 0.00396411
89.19 0.0036116
89.2 0.00321435
89.21 0.0027783
89.22 0.00231018
89.23 0.00181748
89.24 0.00130828
89.25 0.000791088
89.26 0.000274964
89.27 -0.000229709
89.28 -0.000714217
89.29 -0.00116994
89.3 -0.00158867
89.31 -0.00196276
89.32 -0.00228526
89.33 -0.00255009
89.34 -0.0027521
89.35 -0.00288277
89.36 -0.00294125
89.37 -0.00292819
89.38 -0.00284344
89.39 -0.00268812
89.4 -0.00246461
89.41 -0.00217652
89.42 -0.00182864
89.43 -0.00142644
89.44 -0.000973971
89.45 -0.000483726
89.46 3.56251e-05
89.47 0.000574843
89.48 0.00112429
89.49 0.00167407
89.5 0.00221424
89.51 0.00273495
89.52 0.00322479
89.53 0.00367358
89.54 0.00407439
89.55 0.00441967
89.56 0.00470282
89.57 0.00491825
89.58 0.00506155
89.59 0.00512952
89.6 0.00512023
89.61 0.00502633
89.62 0.00485514
89.63 0.00460953
89.64 0.00429316
89.65 0.00391086
89.66 0.00346862
89.67 0.00297344
89.68 0.00243324
89.69 0.00185584
89.7 0.00125094
89.71 0.000630545
89.72 4.78369e-06
89.73 -0.000616154
89.74 -0.00122217
89.75 -0.00180343
89.76 -0.00235053
89.77 -0.00285465
89.78 -0.00330352
89.79 -0.00369188
89.8 -0.00401494
89.81 -0.00426788
89.82 -0.00444704
89.83 -0.00455006
89.84 -0.00457582
89.85 -0.00452454
89.86 -0.00439647
89.87 -0.00419037
89.88 -0.00391633
89.89 -0.00357966
89.9 -0.00318672
89.91 -0.00274474
89.92 -0.00226172
89.93 -0.00174629
89.94 -0.00120753
89.95 -0.000654631
89.96 -9.85247e-05
89.97 0.000450809
89.98 0.000984107
89.99 0.0014925
90 0.00196764
90.01 0.00240188
90.02 0.00278838
90.03 0.00312112
90.04 0.00338947
90.05 0.003595
90.06 0.00373533
90.07 0.00380932
90.08 0.00381705
90.09 0.00375978
90.1 0.00363999
90.11 0.00346126
90.12 0.00322629
90.13 0.00294089
90.14 0.00261466
90.15 0.00225499
90.16 0.00186991
90.17 0.00146786
90.18 0.0010576
90.19 0.000648002
90.2 0.000247961
90.21 -0.000131667
90.22 -0.000482997
90.23 -0.000798512
90.24 -0.00107106
90.25 -0.00129426
90.26 -0.00146258
90.27 -0.00157145
90.28 -0.00161736
90.29 -0.00159618
90.3 -0.00150367
90.31 -0.00134453
90.32 -0.00112004
90.33 -0.000832613
90.34 -0.000485752
90.35 -8.39788e-05
90.36 0.000367238
90.37 0.000861579
90.38 0.00139381
90.39 0.00195405
90.4 0.00253299
90.41 0.00312203
90.42 0.0037124
90.43 0.00429531
90.44 0.00486206
90.45 0.00540423
90.46 0.00591336
90.47 0.00637823
90.48 0.00679499
90.49 0.00715771
90.5 0.00746131
90.51 0.00770164
90.52 0.00787556
90.53 0.00798098
90.54 0.00801686
90.55 0.00797986
90.56 0.00787165
90.57 0.00769772
90.58 0.00746142
90.59 0.00716699
90.6 0.00681949
90.61 0.00642472
90.62 0.00598911
90.63 0.00551961
90.64 0.0050219
90.65 0.00450644
90.66 0.00398118
90.67 0.00345385
90.68 0.00293208
90.69 0.00242319
90.7 0.00193416
90.71 0.00147145
90.72 0.00104224
90.73 0.000653282
90.74 0.000306857
90.75 6.43841e-06
90.76 -0.000245359
90.77 -0.000446801
90.78 -0.00059704
90.79 -0.000696117
90.8 -0.000744932
90.81 -0.00074185
90.82 -0.000692252
90.83 -0.000600546
90.84 -0.000470727
90.85 -0.00030732
90.86 -0.000115291
90.87 0.000100054
90.88 0.000333171
90.89 0.000578497
90.9 0.000830103
90.91 0.00108155
90.92 0.00132746
90.93 0.00156276
90.94 0.00178276
90.95 0.00198324
90.96 0.00216048
90.97 0.0023114
90.98 0.00243173
90.99 0.00252013
91 0.00257669
91.01 0.00260112
91.02 0.00259379
91.03 0.00255572
91.04 0.00248853
91.05 0.0023944
91.06 0.00227599
91.07 0.00213487
91.08 0.00197679
91.09 0.00180559
91.1 0.00162528
91.11 0.00143997
91.12 0.00125377
91.13 0.00107071
91.14 0.000894678
91.15 0.000729895
91.16 0.000580211
91.17 0.000447903
91.18 0.000335386
91.19 0.000244598
91.2 0.000176957
91.21 0.000133349
91.22 0.000114112
91.23 0.000119041
91.24 0.000149208
91.25 0.000201581
91.26 0.00027404
91.27 0.000364359
91.28 0.000469956
91.29 0.000587954
91.3 0.00071525
91.31 0.000848589
91.32 0.000984615
91.33 0.0011196
91.34 0.00125016
91.35 0.00137324
91.36 0.00148602
91.37 0.00158599
91.38 0.00167101
91.39 0.00173932
91.4 0.00178966
91.41 0.00181995
91.42 0.00183066
91.43 0.00182267
91.44 0.00179684
91.45 0.00175453
91.46 0.00169758
91.47 0.00162824
91.48 0.00154917
91.49 0.00146334
91.5 0.00137411
91.51 0.00128551
91.52 0.00120117
91.53 0.00112473
91.54 0.00105981
91.55 0.00100989
91.56 0.000978257
91.57 0.000967908
91.58 0.000982829
91.59 0.00102535
91.6 0.00109607
91.61 0.00119613
91.62 0.00132614
91.63 0.00148609
91.64 0.00167542
91.65 0.00189297
91.66 0.00213698
91.67 0.00240708
91.68 0.00269807
91.69 0.00300645
91.7 0.00332842
91.71 0.00365983
91.72 0.00399629
91.73 0.00433322
91.74 0.00466594
91.75 0.00498929
91.76 0.00529777
91.77 0.00558757
91.78 0.00585457
91.79 0.006095
91.8 0.00630552
91.81 0.00648328
91.82 0.006626
91.83 0.00673197
91.84 0.00679731
91.85 0.00682371
91.86 0.00681238
91.87 0.00676441
91.88 0.00668156
91.89 0.00656621
91.9 0.00642129
91.91 0.00625031
91.92 0.00605685
91.93 0.00584476
91.94 0.00562036
91.95 0.00538853
91.96 0.00515427
91.97 0.00492258
91.98 0.00469837
91.99 0.00448636
92 0.00429101
92.01 0.00411781
92.02 0.00397028
92.03 0.00385063
92.04 0.00376122
92.05 0.00370377
92.06 0.00367931
92.07 0.00368815
92.08 0.00372989
92.09 0.00380349
92.1 0.00390951
92.11 0.00404239
92.12 0.00419888
92.13 0.00437512
92.14 0.00456679
92.15 0.00476917
92.16 0.00497719
92.17 0.0051856
92.18 0.00538852
92.19 0.00557978
92.2 0.00575437
92.21 0.0059072
92.22 0.00603349
92.23 0.00612889
92.24 0.00618951
92.25 0.00621205
92.26 0.00619385
92.27 0.00612929
92.28 0.00602017
92.29 0.00586673
92.3 0.00566945
92.31 0.00542964
92.32 0.00514933
92.33 0.0048313
92.34 0.00447903
92.35 0.00409591
92.36 0.00368619
92.37 0.00325707
92.38 0.00281416
92.39 0.00236332
92.4 0.00191059
92.41 0.00146206
92.42 0.00102376
92.43 0.000601588
92.44 0.000202992
92.45 -0.000167098
92.46 -0.000504585
92.47 -0.000805298
92.48 -0.00106568
92.49 -0.00128284
92.5 -0.00145462
92.51 -0.00157958
92.52 -0.0016565
92.53 -0.00168221
92.54 -0.00166165
92.55 -0.00159658
92.56 -0.00148938
92.57 -0.00134309
92.58 -0.00116127
92.59 -0.000947949
92.6 -0.000707566
92.61 -0.000443951
92.62 -0.000162835
92.63 0.000129818
92.64 0.000429006
92.65 0.000729849
92.66 0.00102768
92.67 0.00131814
92.68 0.00159724
92.69 0.00186144
92.7 0.00210587
92.71 0.00232952
92.72 0.00253073
92.73 0.0027084
92.74 0.00286203
92.75 0.00299177
92.76 0.00309834
92.77 0.00318303
92.78 0.00324699
92.79 0.00329239
92.8 0.00332309
92.81 0.00334209
92.82 0.0033526
92.83 0.00335792
92.84 0.00336139
92.85 0.00336628
92.86 0.0033757
92.87 0.00339327
92.88 0.00342134
92.89 0.0034618
92.9 0.00351625
92.91 0.00358576
92.92 0.00367084
92.93 0.00377143
92.94 0.0038869
92.95 0.00401624
92.96 0.00415806
92.97 0.00430891
92.98 0.00446587
92.99 0.00462563
93 0.00478452
93.01 0.00493862
93.02 0.00508383
93.03 0.00521601
93.04 0.00532974
93.05 0.005421
93.06 0.00548672
93.07 0.00552353
93.08 0.00552853
93.09 0.00549933
93.1 0.00543416
93.11 0.00533191
93.12 0.005192
93.13 0.00501175
93.14 0.00479584
93.15 0.00454639
93.16 0.00426625
93.17 0.00395904
93.18 0.00362904
93.19 0.00328116
93.2 0.00292085
93.21 0.00255403
93.22 0.00218779
93.23 0.00182895
93.24 0.00148413
93.25 0.0011599
93.26 0.000862658
93.27 0.000598512
93.28 0.000373131
93.29 0.000191636
93.3 6.28291e-05
93.31 -1.29071e-05
93.32 -3.35031e-05
93.33 2.69512e-06
93.34 9.6331e-05
93.35 0.000246999
93.36 0.000453224
93.37 0.000712465
93.38 0.0010224
93.39 0.00137947
93.4 0.00177469
93.41 0.00220147
93.42 0.00265245
93.43 0.00311967
93.44 0.00359466
93.45 0.0040686
93.46 0.00453247
93.47 0.00497527
93.48 0.00538792
93.49 0.00576238
93.5 0.00609054
93.51 0.00636493
93.52 0.00657885
93.53 0.00672648
93.54 0.00680306
93.55 0.00680393
93.56 0.00672118
93.57 0.00656009
93.58 0.00632108
93.59 0.00600588
93.6 0.00561757
93.61 0.00516046
93.62 0.00464011
93.63 0.00406321
93.64 0.0034354
93.65 0.00276701
93.66 0.00206965
93.67 0.00135351
93.68 0.000629202
93.69 -9.23957e-05
93.7 -0.00080034
93.71 -0.00148379
93.72 -0.00213218
93.73 -0.00273041
93.74 -0.00327237
93.75 -0.00374972
93.76 -0.00415496
93.77 -0.00448168
93.78 -0.00472466
93.79 -0.00487996
93.8 -0.00494499
93.81 -0.0049152
93.82 -0.00478905
93.83 -0.00457376
93.84 -0.00427258
93.85 -0.00389009
93.86 -0.00343203
93.87 -0.00290527
93.88 -0.00231767
93.89 -0.00167792
93.9 -0.000992939
93.91 -0.000276155
93.92 0.00046131
93.93 0.00120895
93.94 0.0019563
93.95 0.00269308
93.96 0.00340938
93.97 0.00409581
93.98 0.00474267
93.99 0.00533884
94 0.0058805
94.01 0.00636193
94.02 0.00677853
94.03 0.00712686
94.04 0.00740468
94.05 0.00761095
94.06 0.00774582
94.07 0.00780651
94.08 0.00779771
94.09 0.00772545
94.1 0.00759427
94.11 0.00740954
94.12 0.00717725
94.13 0.00690395
94.14 0.00659658
94.15 0.00626222
94.16 0.00590722
94.17 0.00554108
94.18 0.00517077
94.19 0.00480292
94.2 0.00444369
94.21 0.00409863
94.22 0.00377266
94.23 0.00346991
94.24 0.00319501
94.25 0.00295078
94.26 0.00273727
94.27 0.00255498
94.28 0.00240357
94.29 0.00228187
94.3 0.00218797
94.31 0.00211925
94.32 0.00207248
94.33 0.00204514
94.34 0.00203131
94.35 0.00202638
94.36 0.00202575
94.37 0.00202482
94.38 0.00201909
94.39 0.0020043
94.4 0.0019765
94.41 0.00193162
94.42 0.00186571
94.43 0.00177764
94.44 0.00166587
94.45 0.00152958
94.46 0.00136869
94.47 0.00118386
94.48 0.000976538
94.49 0.00074885
94.5 0.000502658
94.51 0.000242607
94.52 -2.67585e-05
94.53 -0.000300899
94.54 -0.000574939
94.55 -0.000843771
94.56 -0.00110217
94.57 -0.00134491
94.58 -0.00156651
94.59 -0.00175991
94.6 -0.0019224
94.61 -0.00205001
94.62 -0.00213933
94.63 -0.00218762
94.64 -0.00219282
94.65 -0.00215364
94.66 -0.00206963
94.67 -0.00193881
94.68 -0.00176315
94.69 -0.00154666
94.7 -0.00129228
94.71 -0.00100366
94.72 -0.000685103
94.73 -0.000341463
94.74 2.19287e-05
94.75 0.000399381
94.76 0.000785143
94.77 0.00117192
94.78 0.00155364
94.79 0.00192442
94.8 0.00227861
94.81 0.00261099
94.82 0.0029168
94.83 0.0031919
94.84 0.00343142
94.85 0.0036317
94.86 0.00379301
94.87 0.0039145
94.88 0.00399618
94.89 0.00403897
94.9 0.00404461
94.91 0.00401567
94.92 0.0039555
94.93 0.00386638
94.94 0.00375508
94.95 0.00362732
94.96 0.00348867
94.97 0.00334496
94.98 0.00320213
94.99 0.00306609
95 0.00294258
95.01 0.0028376
95.02 0.00275784
95.03 0.00270631
95.04 0.00268671
95.05 0.00270197
95.06 0.00275418
95.07 0.00284454
95.08 0.0029733
95.09 0.00313973
95.1 0.0033442
95.11 0.00358258
95.12 0.00384992
95.13 0.0041416
95.14 0.00445222
95.15 0.00477574
95.16 0.00510553
95.17 0.00543454
95.18 0.00575532
95.19 0.00605834
95.2 0.00633694
95.21 0.0065838
95.22 0.00679197
95.23 0.00695495
95.24 0.00706689
95.25 0.00712265
95.26 0.007118
95.27 0.0070466
95.28 0.00690591
95.29 0.0066982
95.3 0.00642379
95.31 0.0060842
95.32 0.00568213
95.33 0.00522143
95.34 0.00470707
95.35 0.00414505
95.36 0.00353952
95.37 0.00290219
95.38 0.00224208
95.39 0.0015684
95.4 0.000890715
95.41 0.000218836
95.42 -0.000437381
95.43 -0.00106819
95.44 -0.00166279
95.45 -0.00220971
95.46 -0.00270305
95.47 -0.00313538
95.48 -0.00350019
95.49 -0.00379202
95.5 -0.00400655
95.51 -0.00414068
95.52 -0.00419259
95.53 -0.00415604
95.54 -0.00403587
95.55 -0.00383655
95.56 -0.00356176
95.57 -0.00321639
95.58 -0.00280645
95.59 -0.00233893
95.6 -0.00182175
95.61 -0.00126309
95.62 -0.000671166
95.63 -5.89139e-05
95.64 0.000563666
95.65 0.00118651
95.66 0.00179968
95.67 0.00239351
95.68 0.00295878
95.69 0.00348687
95.7 0.00396708
95.71 0.00439231
95.72 0.00475866
95.73 0.00506145
95.74 0.00529719
95.75 0.0054636
95.76 0.00555962
95.77 0.00558547
95.78 0.00554256
95.79 0.00542765
95.8 0.0052511
95.81 0.00501796
95.82 0.00473416
95.83 0.0044064
95.84 0.00404207
95.85 0.00364907
95.86 0.00323571
95.87 0.00281038
95.88 0.00238266
95.89 0.00196161
95.9 0.00155543
95.91 0.00117188
95.92 0.0008182
95.93 0.000500965
95.94 0.000225975
95.95 -1.82338e-06
95.96 -0.000174174
95.97 -0.000291092
95.98 -0.000351663
95.99 -0.000355171
96 -0.000301934
96.01 -0.000193275
96.02 -3.1483e-05
96.03 0.000180252
96.04 0.000438856
96.05 0.000740955
96.06 0.00107779
96.07 0.00144332
96.08 0.00183116
96.09 0.00223462
96.1 0.00264693
96.11 0.00306127
96.12 0.00347095
96.13 0.0038684
96.14 0.0042472
96.15 0.00460216
96.16 0.00492824
96.17 0.00522101
96.18 0.00547671
96.19 0.00569233
96.2 0.00586557
96.21 0.00599456
96.22 0.00607501
96.23 0.00611089
96.24 0.00610306
96.25 0.00605307
96.26 0.00596302
96.27 0.00583559
96.28 0.00567392
96.29 0.00548154
96.3 0.00526121
96.31 0.00501752
96.32 0.0047559
96.33 0.00448059
96.34 0.00419574
96.35 0.00390535
96.36 0.00361326
96.37 0.00332299
96.38 0.00303776
96.39 0.00276132
96.4 0.00249563
96.41 0.00224254
96.42 0.00200353
96.43 0.00177963
96.44 0.00157144
96.45 0.00137916
96.46 0.00120261
96.47 0.00104171
96.48 0.000895973
96.49 0.000763309
96.5 0.000642407
96.51 0.000531824
96.52 0.000430042
96.53 0.000335521
96.54 0.00024675
96.55 0.000162297
96.56 8.09815e-05
96.57 1.41979e-06
96.58 -7.73664e-05
96.59 -0.000156068
96.6 -0.000235145
96.61 -0.000314817
96.62 -0.000395067
96.63 -0.000475653
96.64 -0.000556112
96.65 -0.000635674
96.66 -0.000713533
96.67 -0.000788758
96.68 -0.000860348
96.69 -0.000927277
96.7 -0.000988534
96.71 -0.00104317
96.72 -0.00109034
96.73 -0.00112886
96.74 -0.0011583
96.75 -0.00117873
96.76 -0.00119013
96.77 -0.00119273
96.78 -0.00118705
96.79 -0.00117386
96.8 -0.0011542
96.81 -0.00112934
96.82 -0.00110062
96.83 -0.00107022
96.84 -0.00104005
96.85 -0.00101207
96.86 -0.000988325
96.87 -0.000970829
96.88 -0.000961544
96.89 -0.000962313
96.9 -0.000975324
96.91 -0.00100234
96.92 -0.00104379
96.93 -0.00110037
96.94 -0.00117242
96.95 -0.00125986
96.96 -0.00136213
96.97 -0.00147824
96.98 -0.00160673
96.99 -0.00174629
97 -0.00189359
97.01 -0.00204556
97.02 -0.00219895
97.03 -0.00235014
97.04 -0.00249527
97.05 -0.00263027
97.06 -0.00275095
97.07 -0.00285251
97.08 -0.00292922
97.09 -0.00297839
97.1 -0.0029962
97.11 -0.00297914
97.12 -0.00292411
97.13 -0.00282847
97.14 -0.00269013
97.15 -0.00250762
97.16 -0.00227722
97.17 -0.00200038
97.18 -0.00167927
97.19 -0.00131542
97.2 -0.000911121
97.21 -0.000469377
97.22 6.08957e-06
97.23 0.000510891
97.24 0.00104019
97.25 0.00158928
97.26 0.00215005
97.27 0.00271604
97.28 0.00328052
97.29 0.00383663
97.3 0.00437745
97.31 0.00489614
97.32 0.00538603
97.33 0.00583875
97.34 0.00624766
97.35 0.00660905
97.36 0.00691819
97.37 0.00717099
97.38 0.00736414
97.39 0.00749513
97.4 0.0075623
97.41 0.00756488
97.42 0.00749742
97.43 0.00736634
97.44 0.00717414
97.45 0.00692371
97.46 0.00661869
97.47 0.00626343
97.48 0.00586289
97.49 0.00542258
97.5 0.00494756
97.51 0.00444404
97.52 0.00392062
97.53 0.0033839
97.54 0.00284047
97.55 0.00229676
97.56 0.00175899
97.57 0.001233
97.58 0.000724206
97.59 0.000239413
97.6 -0.000217821
97.61 -0.00064451
97.62 -0.00103786
97.63 -0.0013958
97.64 -0.00171699
97.65 -0.00200085
97.66 -0.00224748
97.67 -0.0024571
97.68 -0.00262923
97.69 -0.00276883
97.7 -0.00287851
97.71 -0.00296131
97.72 -0.00302058
97.73 -0.00305987
97.74 -0.00308289
97.75 -0.00309336
97.76 -0.00309464
97.77 -0.00309078
97.78 -0.00308526
97.79 -0.00308091
97.8 -0.00308013
97.81 -0.00308484
97.82 -0.00309645
97.83 -0.00311579
97.84 -0.00314314
97.85 -0.0031788
97.86 -0.00322099
97.87 -0.00326815
97.88 -0.00331821
97.89 -0.00336866
97.9 -0.00341661
97.91 -0.00345884
97.92 -0.00349195
97.93 -0.0035117
97.94 -0.00351385
97.95 -0.00349561
97.96 -0.00345367
97.97 -0.003385
97.98 -0.00328695
97.99 -0.00315731
98 -0.00299444
98.01 -0.00279727
98.02 -0.00256265
98.03 -0.00229331
98.04 -0.00199094
98.05 -0.00165748
98.06 -0.0012956
98.07 -0.000908693
98.08 -0.00050079
98.09 -7.65594e-05
98.1 0.000358918
98.11 0.000799524
98.12 0.00123842
98.13 0.00166924
98.14 0.00208549
98.15 0.00248065
98.16 0.00284832
98.17 0.00318232
98.18 0.0034768
98.19 0.00372317
98.2 0.00391773
98.21 0.00405786
98.22 0.00414037
98.23 0.0041629
98.24 0.00412399
98.25 0.00402314
98.26 0.00386082
98.27 0.00363792
98.28 0.00335286
98.29 0.00301427
98.3 0.0026266
98.31 0.00219512
98.32 0.00172582
98.33 0.00122533
98.34 0.00070079
98.35 0.000159773
98.36 -0.000389892
98.37 -0.000939156
98.38 -0.00147968
98.39 -0.00200363
98.4 -0.00250348
98.41 -0.0029721
98.42 -0.00340291
98.43 -0.00379
98.44 -0.00412819
98.45 -0.00440814
98.46 -0.0046307
98.47 -0.00479397
98.48 -0.00489677
98.49 -0.00493892
98.5 -0.00492126
98.51 -0.00484565
98.52 -0.00471487
98.53 -0.00453108
98.54 -0.00429812
98.55 -0.00402452
98.56 -0.0037163
98.57 -0.00337996
98.58 -0.00302236
98.59 -0.00265061
98.6 -0.00227189
98.61 -0.00189338
98.62 -0.00152307
98.63 -0.00116792
98.64 -0.000833909
98.65 -0.000526626
98.66 -0.000251012
98.67 -1.12576e-05
98.68 0.000189257
98.69 0.00034802
98.7 0.000462637
98.71 0.000529863
98.72 0.000553499
98.73 0.000534904
98.74 0.000476297
98.75 0.000380702
98.76 0.000251879
98.77 9.42337e-05
98.78 -8.72724e-05
98.79 -0.000287951
98.8 -0.000500988
98.81 -0.00071975
98.82 -0.000938217
98.83 -0.00115045
98.84 -0.00135069
98.85 -0.00153351
98.86 -0.00169392
98.87 -0.00182737
98.88 -0.00192693
98.89 -0.00199218
98.9 -0.00202093
98.91 -0.00201181
98.92 -0.0019643
98.93 -0.00187874
98.94 -0.00175633
98.95 -0.00159911
98.96 -0.00140872
98.97 -0.00118894
98.98 -0.000945806
98.99 -0.000684252
99 -0.000409663
99.01 -0.000127778
99.02 0.000155427
99.03 0.000433854
99.04 0.000701412
99.05 0.000950293
99.06 0.00117545
99.07 0.00137185
99.08 0.00153474
99.09 0.00165996
99.1 0.00174402
99.11 0.00178419
99.12 0.00177856
99.13 0.00172483
99.14 0.00162092
99.15 0.00147099
99.16 0.00127685
99.17 0.00104119
99.18 0.00076752
99.19 0.000460095
99.2 0.000123873
99.21 -0.000235585
99.22 -0.000612895
99.23 -0.0010002
99.24 -0.0013902
99.25 -0.00177594
99.26 -0.00215044
99.27 -0.00250681
99.28 -0.0028384
99.29 -0.00313889
99.3 -0.00340196
99.31 -0.00361871
99.32 -0.00378782
99.33 -0.00390554
99.34 -0.00396893
99.35 -0.00397593
99.36 -0.00392535
99.37 -0.00381697
99.38 -0.00365146
99.39 -0.00342782
99.4 -0.00314928
99.41 -0.00282187
99.42 -0.00244995
99.43 -0.0020386
99.44 -0.00159353
99.45 -0.00112099
99.46 -0.000627683
99.47 -0.000120667
99.48 0.00039269
99.49 0.000903828
99.5 0.00140534
99.51 0.00188997
99.52 0.00235075
99.53 0.00278101
99.54 0.00317456
99.55 0.00352575
99.56 0.00382775
99.57 0.00407445
99.58 0.00426531
99.59 0.00439771
99.6 0.00446985
99.61 0.0044808
99.62 0.00443044
99.63 0.00431952
99.64 0.0041496
99.65 0.00391908
99.66 0.00363447
99.67 0.00330088
99.68 0.00292283
99.69 0.00250539
99.7 0.0020541
99.71 0.00157484
99.72 0.0010738
99.73 0.000557207
99.74 3.17404e-05
99.75 -0.000495013
99.76 -0.00101665
99.77 -0.00152693
99.78 -0.00201989
99.79 -0.00248987
99.8 -0.00293161
99.81 -0.00334031
99.82 -0.00370926
99.83 -0.00403518
99.84 -0.00431642
99.85 -0.00455058
99.86 -0.00473589
99.87 -0.00487126
99.88 -0.0049562
99.89 -0.00499089
99.9 -0.00497596
99.91 -0.00490879
99.92 -0.00479598
99.93 -0.00464016
99.94 -0.00444447
99.95 -0.00421248
99.96 -0.00394815
99.97 -0.00365579
99.98 -0.00334
99.99 -0.00300504
100 -0.00265641
100.01 -0.00230018
100.02 -0.0019415
100.03 -0.00158551
100.04 -0.00123725
100.05 -0.000901644
100.06 -0.000583401
100.07 -0.000286995
100.08 -1.90564e-05
100.09 0.000218119
100.1 0.000421514
100.11 0.000588225
100.12 0.000715818
100.13 0.000802361
100.14 0.000846449
100.15 0.00084722
100.16 0.000803196
100.17 0.000713001
100.18 0.000580547
100.19 0.000407374
100.2 0.000195577
100.21 -5.22131e-05
100.22 -0.000332852
100.23 -0.000642712
100.24 -0.000977721
100.25 -0.00133445
100.26 -0.00170669
100.27 -0.0020887
100.28 -0.00247506
100.29 -0.00286018
100.3 -0.00323839
100.31 -0.00360402
100.32 -0.00395143
100.33 -0.00427478
100.34 -0.0045662
100.35 -0.0048228
100.36 -0.00504004
100.37 -0.00521383
100.38 -0.0053406
100.39 -0.00541735
100.4 -0.00544173
100.41 -0.00541208
100.42 -0.00532464
100.43 -0.00517974
100.44 -0.00498056
100.45 -0.00472869
100.46 -0.0044265
100.47 -0.00407715
100.48 -0.00368453
100.49 -0.00325326
100.5 -0.00278859
100.51 -0.00229449
100.52 -0.00178034
100.53 -0.00125315
100.54 -0.000720174
100.55 -0.000188883
100.56 0.00033314
100.57 0.000838304
100.58 0.00131912
100.59 0.00176696
100.6 0.00217322
100.61 0.00253346
100.62 0.00284193
100.63 0.00309356
100.64 0.00328403
100.65 0.0034099
100.66 0.00346864
100.67 0.00345867
100.68 0.0033743
100.69 0.00322006
100.7 0.00299906
100.71 0.00271411
100.72 0.002369
100.73 0.00196846
100.74 0.00151811
100.75 0.00102437
100.76 0.000493784
100.77 -6.65877e-05
100.78 -0.000645838
100.79 -0.00123537
100.8 -0.0018264
100.81 -0.00241015
100.82 -0.0029779
100.83 -0.00352125
100.84 -0.00403215
100.85 -0.00450032
100.86 -0.00491923
100.87 -0.00528449
100.88 -0.00559117
100.89 -0.00583538
100.9 -0.00601428
100.91 -0.00612618
100.92 -0.00617052
100.93 -0.00614769
100.94 -0.00605416
100.95 -0.00589918
100.96 -0.00568703
100.97 -0.00542298
100.98 -0.00511322
100.99 -0.00476474
101 -0.00438519
101.01 -0.00398275
101.02 -0.00356577
101.03 -0.00314413
101.04 -0.00272736
101.05 -0.00232415
101.06 -0.00194289
101.07 -0.00159151
101.08 -0.00127732
101.09 -0.00100686
101.1 -0.000785795
101.11 -0.000623586
101.12 -0.000520044
101.13 -0.000476663
101.14 -0.000494323
101.15 -0.00057265
101.16 -0.000710013
101.17 -0.000903551
101.18 -0.00114922
101.19 -0.00144299
101.2 -0.00177942
101.21 -0.00214817
101.22 -0.0025412
101.23 -0.0029499
101.24 -0.00336522
101.25 -0.00377788
101.26 -0.00417851
101.27 -0.00455785
101.28 -0.00490433
101.29 -0.00520987
101.3 -0.00546768
101.31 -0.00567096
101.32 -0.00581392
101.33 -0.00589189
101.34 -0.00590144
101.35 -0.00584043
101.36 -0.00570726
101.37 -0.0054979
101.38 -0.00522065
101.39 -0.00487933
101.4 -0.00447911
101.41 -0.00402644
101.42 -0.00352891
101.43 -0.00299516
101.44 -0.00243473
101.45 -0.00185759
101.46 -0.00127609
101.47 -0.000702051
101.48 -0.000146758
101.49 0.000378636
101.5 0.000863309
101.51 0.00129697
101.52 0.00167007
101.53 0.00197398
101.54 0.00219355
101.55 0.00232902
101.56 0.00237607
101.57 0.00233167
101.58 0.00219437
101.59 0.00196439
101.6 0.00164359
101.61 0.00123549
101.62 0.000742465
101.63 0.000170541
101.64 -0.000467139
101.65 -0.00116088
101.66 -0.00189989
101.67 -0.00267242
101.68 -0.00346599
101.69 -0.0042676
101.7 -0.00506394
101.71 -0.0058392
101.72 -0.00657999
101.73 -0.00727399
101.74 -0.0079092
101.75 -0.00847451
101.76 -0.00895989
101.77 -0.00935658
101.78 -0.00965726
101.79 -0.00985396
101.8 -0.00993676
101.81 -0.00991128
101.82 -0.00977742
101.83 -0.00953687
101.84 -0.0091931
101.85 -0.00875131
101.86 -0.00821832
101.87 -0.00760248
101.88 -0.00690978
101.89 -0.00615445
101.9 -0.00535108
101.91 -0.00451256
101.92 -0.00365227
101.93 -0.00278388
101.94 -0.00192112
101.95 -0.0010775
101.96 -0.000266353
101.97 0.000495028
101.98 0.00119841
101.99 0.00183361
102 0.00239175
102.01 0.00286543
102.02 0.00324876
102.03 0.00353757
102.04 0.00372939
102.05 0.00381916
102.06 0.0038078
102.07 0.00370333
102.08 0.00351052
102.09 0.00323569
102.1 0.00288652
102.11 0.00247195
102.12 0.00200197
102.13 0.00148743
102.14 0.000938076
102.15 0.000369368
102.16 -0.000206237
102.17 -0.000776712
102.18 -0.00133036
102.19 -0.00185603
102.2 -0.00234334
102.21 -0.00278283
102.22 -0.00316435
102.23 -0.00347793
102.24 -0.00372204
102.25 -0.00389292
102.26 -0.00398844
102.27 -0.00400804
102.28 -0.00395281
102.29 -0.00382541
102.3 -0.00363003
102.31 -0.00336853
102.32 -0.0030514
102.33 -0.00268862
102.34 -0.00228949
102.35 -0.0018641
102.36 -0.00142309
102.37 -0.00097744
102.38 -0.000538274
102.39 -0.000117002
102.4 0.000272718
102.41 0.000622433
102.42 0.000922923
102.43 0.00116594
102.44 0.00134437
102.45 0.00145239
102.46 0.00148556
102.47 0.00144093
102.48 0.00131294
102.49 0.00110292
102.5 0.000816341
102.51 0.000456886
102.52 2.97391e-05
102.53 -0.000458538
102.54 -0.00100012
102.55 -0.00158606
102.56 -0.00220647
102.57 -0.00285185
102.58 -0.00350784
102.59 -0.00416278
102.6 -0.00480496
102.61 -0.00542282
102.62 -0.00600515
102.63 -0.00654132
102.64 -0.00702146
102.65 -0.0074339
102.66 -0.00776864
102.67 -0.00802323
102.68 -0.00819289
102.69 -0.00827434
102.7 -0.00826586
102.71 -0.00816734
102.72 -0.00798026
102.73 -0.00770769
102.74 -0.00734846
102.75 -0.00691418
102.76 -0.00641388
102.77 -0.00585634
102.78 -0.00525134
102.79 -0.00460943
102.8 -0.0039418
102.81 -0.00326005
102.82 -0.00257619
102.83 -0.00190377
102.84 -0.00125429
102.85 -0.000638735
102.86 -6.74038e-05
102.87 0.000450263
102.88 0.000905853
102.89 0.00129212
102.9 0.00160312
102.91 0.0018292
102.92 0.00196937
102.93 0.00202507
102.94 0.0019966
102.95 0.00188576
102.96 0.00169579
102.97 0.00143134
102.98 0.00109833
102.99 0.000703528
103 0.000251565
103.01 -0.000243072
103.02 -0.000770569
103.03 -0.00132065
103.04 -0.00188276
103.05 -0.0024463
103.06 -0.00300074
103.07 -0.0035359
103.08 -0.00404031
103.09 -0.00450377
103.1 -0.00491974
103.11 -0.00528123
103.12 -0.00558233
103.13 -0.00581835
103.14 -0.00598587
103.15 -0.00608278
103.16 -0.0061083
103.17 -0.00605713
103.18 -0.00593688
103.19 -0.00575162
103.2 -0.00550588
103.21 -0.00520529
103.22 -0.00485636
103.23 -0.00446643
103.24 -0.00404348
103.25 -0.00359552
103.26 -0.00313184
103.27 -0.00266291
103.28 -0.00219765
103.29 -0.00174474
103.3 -0.00131249
103.31 -0.000908711
103.32 -0.000540526
103.33 -0.000214298
103.34 6.08743e-05
103.35 0.000282296
103.36 0.000447945
103.37 0.000555698
103.38 0.000604539
103.39 0.000594556
103.4 0.000526925
103.41 0.00040386
103.42 0.000227859
103.43 3.9222e-07
103.44 -0.00026933
103.45 -0.000575555
103.46 -0.000911985
103.47 -0.0012719
103.48 -0.00164829
103.49 -0.00203398
103.5 -0.00242181
103.51 -0.00280405
103.52 -0.00317318
103.53 -0.00352306
103.54 -0.00384785
103.55 -0.0041423
103.56 -0.00440183
103.57 -0.0046226
103.58 -0.00480157
103.59 -0.00493653
103.6 -0.00502182
103.61 -0.00506122
103.62 -0.00505528
103.63 -0.00500529
103.64 -0.00491328
103.65 -0.00478197
103.66 -0.00461468
103.67 -0.00441525
103.68 -0.00418708
103.69 -0.00393498
103.7 -0.00366539
103.71 -0.00338333
103.72 -0.00309384
103.73 -0.00280191
103.74 -0.00251232
103.75 -0.00222965
103.76 -0.00195814
103.77 -0.00170309
103.78 -0.00146725
103.79 -0.0012532
103.8 -0.00106322
103.81 -0.000899114
103.82 -0.000762109
103.83 -0.000652923
103.84 -0.000571766
103.85 -0.000518987
103.86 -0.00049507
103.87 -0.000496844
103.88 -0.000522793
103.89 -0.000571134
103.9 -0.000639874
103.91 -0.000726874
103.92 -0.000829906
103.93 -0.00094672
103.94 -0.00107567
103.95 -0.00121406
103.96 -0.00135953
103.97 -0.00151028
103.98 -0.00166471
103.99 -0.00182145
104 -0.00197935
104.01 -0.0021375
104.02 -0.00229523
104.03 -0.00245199
104.04 -0.0026076
104.05 -0.00276202
104.06 -0.00291531
104.07 -0.00306763
104.08 -0.00321917
104.09 -0.00337013
104.1 -0.00352066
104.11 -0.0036708
104.12 -0.00382043
104.13 -0.0039693
104.14 -0.0041169
104.15 -0.00426248
104.16 -0.00440508
104.17 -0.00454342
104.18 -0.00467602
104.19 -0.00480109
104.2 -0.00491563
104.21 -0.00501795
104.22 -0.0051057
104.23 -0.00517634
104.24 -0.00522725
104.25 -0.00525583
104.26 -0.00525949
104.27 -0.00523578
104.28 -0.00518144
104.29 -0.00509322
104.3 -0.00497141
104.31 -0.00481478
104.32 -0.00462257
104.33 -0.0043945
104.34 -0.00413087
104.35 -0.00383253
104.36 -0.00350095
104.37 -0.00313621
104.38 -0.00274283
104.39 -0.002325
104.4 -0.00188674
104.41 -0.0014326
104.42 -0.000967605
104.43 -0.000497205
104.44 -2.7197e-05
104.45 0.000436158
104.46 0.000885161
104.47 0.00131409
104.48 0.00171669
104.49 0.00208685
104.5 0.00241875
104.51 0.00270691
104.52 0.0029463
104.53 0.00313248
104.54 0.00325831
104.55 0.0033213
104.56 0.00332162
104.57 0.00325797
104.58 0.00312998
104.59 0.00293815
104.6 0.00268391
104.61 0.0023696
104.62 0.00199842
104.63 0.00156989
104.64 0.00109432
104.65 0.000577427
104.66 2.55063e-05
104.67 -0.000554614
104.68 -0.0011557
104.69 -0.00177022
104.7 -0.00239047
104.71 -0.00300828
104.72 -0.00361484
104.73 -0.00420289
104.74 -0.00476528
104.75 -0.00529534
104.76 -0.00578693
104.77 -0.00623454
104.78 -0.00663341
104.79 -0.00697955
104.8 -0.0072652
104.81 -0.00749159
104.82 -0.00765844
104.83 -0.00776552
104.84 -0.00781352
104.85 -0.00780398
104.86 -0.00773925
104.87 -0.0076225
104.88 -0.0074565
104.89 -0.00724425
104.9 -0.00699417
104.91 -0.00671175
104.92 -0.00640275
104.93 -0.00607313
104.94 -0.00572887
104.95 -0.00537594
104.96 -0.00502013
104.97 -0.0046675
104.98 -0.00432365
104.99 -0.00399311
105 -0.00367994
105.01 -0.00338764
105.02 -0.00311903
105.03 -0.00287628
105.04 -0.00266081
105.05 -0.00247363
105.06 -0.00231689
105.07 -0.00218738
105.08 -0.00208372
105.09 -0.00200393
105.1 -0.00194555
105.11 -0.00190567
105.12 -0.00188105
105.13 -0.00186819
105.14 -0.00186362
105.15 -0.00186311
105.16 -0.00186262
105.17 -0.0018586
105.18 -0.00184774
105.19 -0.00182702
105.2 -0.00179382
105.21 -0.00174598
105.22 -0.00168181
105.23 -0.00159862
105.24 -0.0014973
105.25 -0.00137814
105.26 -0.0012419
105.27 -0.00108991
105.28 -0.000924028
105.29 -0.000746638
105.3 -0.000560554
105.31 -0.000368924
105.32 -0.000175652
105.33 1.51543e-05
105.34 0.000199575
105.35 0.000373654
105.36 0.00053349
105.37 0.00067533
105.38 0.00079565
105.39 0.000891246
105.4 0.000957159
105.41 0.000992227
105.42 0.000995395
105.43 0.000965557
105.44 0.000902226
105.45 0.000805551
105.46 0.00067633
105.47 0.000516001
105.48 0.000326187
105.49 0.000108261
105.5 -0.000132231
105.51 -0.000391505
105.52 -0.000665382
105.53 -0.000949359
105.54 -0.0012387
105.55 -0.00152853
105.56 -0.00181391
105.57 -0.00208917
105.58 -0.00234921
105.59 -0.00258999
105.6 -0.00280744
105.61 -0.00299792
105.62 -0.00315832
105.63 -0.00328609
105.64 -0.00337928
105.65 -0.00343661
105.66 -0.00345415
105.67 -0.00343557
105.68 -0.00338188
105.69 -0.00329478
105.7 -0.00317661
105.71 -0.00303031
105.72 -0.0028594
105.73 -0.00266787
105.74 -0.00245963
105.75 -0.00223986
105.76 -0.00201437
105.77 -0.00178823
105.78 -0.00156651
105.79 -0.00135417
105.8 -0.00115598
105.81 -0.000976413
105.82 -0.000819556
105.83 -0.000691387
105.84 -0.000593458
105.85 -0.000527713
105.86 -0.000495816
105.87 -0.00049874
105.88 -0.000536738
105.89 -0.000609345
105.9 -0.000715379
105.91 -0.000853688
105.92 -0.00102269
105.93 -0.00121693
105.94 -0.00143263
105.95 -0.00166553
105.96 -0.00191102
105.97 -0.0021642
105.98 -0.00241998
105.99 -0.0026732
106 -0.00291788
106.01 -0.0031487
106.02 -0.00336117
106.03 -0.00355084
106.04 -0.00371372
106.05 -0.00384626
106.06 -0.00394551
106.07 -0.0040091
106.08 -0.00403497
106.09 -0.00401917
106.1 -0.00396475
106.11 -0.00387228
106.12 -0.003743
106.13 -0.00357882
106.14 -0.00338226
106.15 -0.00315642
106.16 -0.00290489
106.17 -0.00263088
106.18 -0.00233941
106.19 -0.00203615
106.2 -0.00172592
106.21 -0.00141361
106.22 -0.00110404
106.23 -0.00080193
106.24 -0.000511741
106.25 -0.000237638
106.26 1.45558e-05
106.27 0.000242956
106.28 0.000445017
106.29 0.000618642
106.3 0.000762338
106.31 0.000875238
106.32 0.000957107
106.33 0.00100833
106.34 0.00102898
106.35 0.00102007
106.36 0.000985647
106.37 0.000928374
106.38 0.000851326
106.39 0.000757895
106.4 0.000651717
106.41 0.000536588
106.42 0.000416373
106.43 0.000295117
106.44 0.000176987
106.45 6.5511e-05
106.46 -3.60826e-05
106.47 -0.000124918
106.48 -0.000198534
106.49 -0.000254936
106.5 -0.000292639
106.51 -0.000310345
106.52 -0.000306502
106.53 -0.000282945
106.54 -0.000240545
106.55 -0.000180708
106.56 -0.000105342
106.57 -1.68107e-05
106.58 8.21158e-05
106.59 0.000188329
106.6 0.00029846
106.61 0.00040842
106.62 0.000514384
106.63 0.00061265
106.64 0.000699598
106.65 0.000771771
106.66 0.000825956
106.67 0.000859258
106.68 0.000869118
106.69 0.000851029
106.7 0.000805764
106.71 0.000732449
106.72 0.000630792
106.73 0.000501098
106.74 0.000344271
106.75 0.000161807
106.76 -4.42273e-05
106.77 -0.000271965
106.78 -0.000518074
106.79 -0.000777836
106.8 -0.00104727
106.81 -0.00132212
106.82 -0.00159794
106.83 -0.00187014
106.84 -0.00213412
106.85 -0.00238536
106.86 -0.00261773
106.87 -0.00282791
106.88 -0.00301238
106.89 -0.00316783
106.9 -0.00329139
106.91 -0.00338075
106.92 -0.00343418
106.93 -0.00345056
106.94 -0.00342845
106.95 -0.00336652
106.96 -0.00326835
106.97 -0.00313555
106.98 -0.00297035
106.99 -0.00277554
107 -0.00255441
107.01 -0.00231071
107.02 -0.00204859
107.03 -0.00177187
107.04 -0.00148627
107.05 -0.00119699
107.06 -0.000908874
107.07 -0.000626693
107.08 -0.000355072
107.09 -9.83988e-05
107.1 0.000139253
107.11 0.000353926
107.12 0.000540195
107.13 0.000697424
107.14 0.000823578
107.15 0.00091722
107.16 0.000977527
107.17 0.0010043
107.18 0.000997948
107.19 0.000959502
107.2 0.000889148
107.21 0.000789512
107.22 0.000664681
107.23 0.000517802
107.24 0.000352373
107.25 0.00017217
107.26 -1.88285e-05
107.27 -0.000216522
107.28 -0.000416765
107.29 -0.000614953
107.3 -0.00080692
107.31 -0.000988931
107.32 -0.00115752
107.33 -0.00130955
107.34 -0.00144227
107.35 -0.00155339
107.36 -0.00164104
107.37 -0.00170301
107.38 -0.00173774
107.39 -0.00174651
107.4 -0.00172959
107.41 -0.00168775
107.42 -0.00162218
107.43 -0.00153447
107.44 -0.0014266
107.45 -0.00130084
107.46 -0.00115877
107.47 -0.00100419
107.48 -0.000840269
107.49 -0.000669871
107.5 -0.000495841
107.51 -0.000320928
107.52 -0.000147727
107.53 2.1372e-05
107.54 0.000184086
107.55 0.000337961
107.56 0.000482076
107.57 0.000615376
107.58 0.000737181
107.59 0.000847188
107.6 0.000945467
107.61 0.00103244
107.62 0.00110887
107.63 0.00117534
107.64 0.00123355
107.65 0.00128542
107.66 0.00133265
107.67 0.00137706
107.68 0.00142046
107.69 0.00146466
107.7 0.00151136
107.71 0.00156214
107.72 0.00161892
107.73 0.00168235
107.74 0.00175313
107.75 0.00183165
107.76 0.0019179
107.77 0.00201151
107.78 0.00211168
107.79 0.00221724
107.8 0.00232672
107.81 0.00243792
107.82 0.00254834
107.83 0.00265539
107.84 0.00275626
107.85 0.00284797
107.86 0.00292744
107.87 0.00299156
107.88 0.00303726
107.89 0.00305961
107.9 0.00305712
107.91 0.00302764
107.92 0.0029691
107.93 0.00287984
107.94 0.00275867
107.95 0.00260493
107.96 0.0024185
107.97 0.00219903
107.98 0.00194655
107.99 0.00166506
108 0.00135704
108.01 0.00102551
108.02 0.000674083
108.03 0.000306854
108.04 -7.16176e-05
108.05 -0.000456387
108.06 -0.000841892
108.07 -0.00122199
108.08 -0.00159103
108.09 -0.00194334
108.1 -0.00227334
108.11 -0.00257562
108.12 -0.00284504
108.13 -0.00307685
108.14 -0.00326619
108.15 -0.00340572
108.16 -0.00349597
108.17 -0.00353466
108.18 -0.00352025
108.19 -0.00345199
108.2 -0.00332996
108.21 -0.00315504
108.22 -0.00292897
108.23 -0.00265199
108.24 -0.00232827
108.25 -0.00196415
108.26 -0.00156451
108.27 -0.0011348
108.28 -0.00068099
108.29 -0.000209465
108.3 0.00027309
108.31 0.000759783
108.32 0.00124274
108.33 0.00171469
108.34 0.00216887
108.35 0.00259877
108.36 0.00299827
108.37 0.00336171
108.38 0.00368403
108.39 0.00396078
108.4 0.00418641
108.41 0.00435648
108.42 0.00447203
108.43 0.00453201
108.44 0.00453625
108.45 0.00448541
108.46 0.00438104
108.47 0.00422548
108.48 0.00402184
108.49 0.00377099
108.5 0.00348035
108.51 0.00315591
108.52 0.00280325
108.53 0.0024283
108.54 0.00203719
108.55 0.00163623
108.56 0.0012317
108.57 0.000830032
108.58 0.000438348
108.59 6.20485e-05
108.6 -0.000293602
108.61 -0.000623824
108.62 -0.000924394
108.63 -0.0011917
108.64 -0.0014228
108.65 -0.00161545
108.66 -0.00176571
108.67 -0.00187375
108.68 -0.00194109
108.69 -0.00196851
108.7 -0.00195749
108.71 -0.00191008
108.72 -0.00182894
108.73 -0.00171717
108.74 -0.00157823
108.75 -0.00141439
108.76 -0.00123223
108.77 -0.00103604
108.78 -0.000830203
108.79 -0.000619018
108.8 -0.000406678
108.81 -0.000197163
108.82 5.83003e-06
108.83 0.000198392
108.84 0.000377183
108.85 0.000540371
108.86 0.000686104
108.87 0.000813065
108.88 0.000920479
108.89 0.00100811
108.9 0.00107627
108.91 0.00112575
108.92 0.00115656
108.93 0.00117188
108.94 0.00117408
108.95 0.00116566
108.96 0.00114934
108.97 0.00112802
108.98 0.00110469
108.99 0.00108234
109 0.00106412
109.01 0.00105342
109.02 0.00105248
109.03 0.00106359
109.04 0.0010887
109.05 0.00112936
109.06 0.0011867
109.07 0.00126142
109.08 0.00135372
109.09 0.00146447
109.1 0.00159207
109.11 0.00173475
109.12 0.00189078
109.13 0.00205802
109.14 0.00223401
109.15 0.00241597
109.16 0.0026009
109.17 0.00278556
109.18 0.00296611
109.19 0.0031393
109.2 0.0033019
109.21 0.0034508
109.22 0.00358312
109.23 0.00369622
109.24 0.00378781
109.25 0.00385598
109.26 0.00389789
109.27 0.0039127
109.28 0.00390105
109.29 0.00386305
109.3 0.00379929
109.31 0.0037109
109.32 0.00359946
109.33 0.00346701
109.34 0.00331601
109.35 0.00314815
109.36 0.00296823
109.37 0.00277974
109.38 0.00258626
109.39 0.00239145
109.4 0.00219899
109.41 0.00201249
109.42 0.0018354
109.43 0.00167154
109.44 0.00152453
109.45 0.00139612
109.46 0.0012884
109.47 0.00120299
109.48 0.00114103
109.49 0.0011031
109.5 0.00108927
109.51 0.00109903
109.52 0.00113296
109.53 0.00118798
109.54 0.00126154
109.55 0.00135106
109.56 0.00145359
109.57 0.00156586
109.58 0.00168436
109.59 0.00180541
109.6 0.00192514
109.61 0.0020391
109.62 0.00214377
109.63 0.00223568
109.64 0.00231162
109.65 0.00236875
109.66 0.00240462
109.67 0.00241728
109.68 0.00240529
109.69 0.00236626
109.7 0.00230067
109.71 0.00220994
109.72 0.00209525
109.73 0.00195841
109.74 0.00180184
109.75 0.00162853
109.76 0.001442
109.77 0.0012462
109.78 0.00104557
109.79 0.00084564
109.8 0.000651389
109.81 0.000467903
109.82 0.000300285
109.83 0.000153554
109.84 3.25413e-05
109.85 -5.82091e-05
109.86 -0.000112831
109.87 -0.000127037
109.88 -9.95959e-05
109.89 -2.81859e-05
109.9 8.87976e-05
109.91 0.000252192
109.92 0.000462031
109.93 0.000717521
109.94 0.00101703
109.95 0.00136132
109.96 0.00174365
109.97 0.00215937
109.98 0.00260358
109.99 0.00307072
110 0.00355469
110.01 0.00404894
110.02 0.00454653
110.03 0.00503997
110.04 0.00552067
110.05 0.00598166
110.06 0.00641576
110.07 0.00681604
110.08 0.00717597
110.09 0.00748949
110.1 0.00775113
110.11 0.00795612
110.12 0.00809607
110.13 0.0081702
110.14 0.00817806
110.15 0.0081186
110.16 0.00799173
110.17 0.00779835
110.18 0.00754037
110.19 0.00722063
110.2 0.0068422
110.21 0.00640667
110.22 0.00592431
110.23 0.0054014
110.24 0.00484484
110.25 0.00426198
110.26 0.00366054
110.27 0.00304849
110.28 0.00243391
110.29 0.0018256
110.3 0.00123236
110.31 0.000661506
110.32 0.000120209
110.33 -0.000384883
110.34 -0.000847744
110.35 -0.00126306
110.36 -0.0016263
110.37 -0.00193379
110.38 -0.00217718
110.39 -0.00235989
110.4 -0.00248139
110.41 -0.00254194
110.42 -0.00254273
110.43 -0.00248583
110.44 -0.00237415
110.45 -0.00221137
110.46 -0.00200031
110.47 -0.00174578
110.48 -0.001456
110.49 -0.00113692
110.5 -0.000794755
110.51 -0.000435847
110.52 -6.65785e-05
110.53 0.00030676
110.54 0.000678075
110.55 0.00104056
110.56 0.00138883
110.57 0.00171829
110.58 0.00202477
110.59 0.00230473
110.6 0.00255537
110.61 0.00277461
110.62 0.00296113
110.63 0.00311365
110.64 0.00323079
110.65 0.00331609
110.66 0.00337132
110.67 0.00339889
110.68 0.00340177
110.69 0.00338341
110.7 0.00334765
110.71 0.00329866
110.72 0.00324053
110.73 0.00317848
110.74 0.00311723
110.75 0.00306109
110.76 0.00301417
110.77 0.00298021
110.78 0.0029626
110.79 0.00296419
110.8 0.00298746
110.81 0.00303614
110.82 0.00310919
110.83 0.00320685
110.84 0.00332861
110.85 0.0034733
110.86 0.00363907
110.87 0.00382341
110.88 0.0040232
110.89 0.00423515
110.9 0.00445457
110.91 0.00467629
110.92 0.00489545
110.93 0.00510697
110.94 0.00530572
110.95 0.00548659
110.96 0.00564457
110.97 0.00577495
110.98 0.00587023
110.99 0.00592863
111 0.00594714
111.01 0.00592311
111.02 0.00585459
111.03 0.00574036
111.04 0.00558002
111.05 0.00537399
111.06 0.00512227
111.07 0.00482583
111.08 0.00449064
111.09 0.00412059
111.1 0.00372029
111.11 0.00329503
111.12 0.00285064
111.13 0.00239348
111.14 0.00193029
111.15 0.00146866
111.16 0.00101651
111.17 0.000581007
111.18 0.000169271
111.19 -0.000211818
111.2 -0.000555729
111.21 -0.0008564
111.22 -0.00110834
111.23 -0.00130592
111.24 -0.00144098
111.25 -0.00151488
111.26 -0.0015256
111.27 -0.00147204
111.28 -0.00135416
111.29 -0.00117291
111.3 -0.000930267
111.31 -0.000629214
111.32 -0.000271037
111.33 0.000137977
111.34 0.000589743
111.35 0.00107763
111.36 0.00159436
111.37 0.00213213
111.38 0.00268274
111.39 0.00323766
111.4 0.00378825
111.41 0.00432382
111.42 0.00483636
111.43 0.00531767
111.44 0.00575996
111.45 0.00615599
111.46 0.00649916
111.47 0.00678366
111.48 0.00700455
111.49 0.00715512
111.5 0.00723089
111.51 0.00723404
111.52 0.00716405
111.53 0.0070215
111.54 0.00680809
111.55 0.00652665
111.56 0.00618104
111.57 0.00577615
111.58 0.00531417
111.59 0.00480579
111.6 0.00425949
111.61 0.00368346
111.62 0.00308639
111.63 0.00247734
111.64 0.00186557
111.65 0.00126046
111.66 0.000671905
111.67 0.000111222
111.68 -0.000414139
111.69 -0.000895978
111.7 -0.00132671
111.71 -0.00169947
111.72 -0.00200823
111.73 -0.00224788
111.74 -0.00241427
111.75 -0.00249948
111.76 -0.00250373
111.77 -0.00242891
111.78 -0.00227557
111.79 -0.00204537
111.8 -0.00174108
111.81 -0.00136652
111.82 -0.000926524
111.83 -0.000426454
111.84 0.000130628
111.85 0.00073209
111.86 0.00136982
111.87 0.00203521
111.88 0.00271927
111.89 0.0034128
111.9 0.00410643
111.91 0.00479085
111.92 0.00545558
111.93 0.00609055
111.94 0.0066883
111.95 0.00724092
111.96 0.00774117
111.97 0.00818252
111.98 0.00855927
111.99 0.00886658
112 0.00910055
112.01 0.00925156
112.02 0.0093236
112.03 0.00931671
112.04 0.00923128
112.05 0.00906873
112.06 0.00883144
112.07 0.00852274
112.08 0.00814684
112.09 0.00770705
112.1 0.00720805
112.11 0.00666032
112.12 0.00607097
112.13 0.00544758
112.14 0.00479802
112.15 0.00413044
112.16 0.00345308
112.17 0.00277423
112.18 0.00210312
112.19 0.00144823
112.2 0.000816984
112.21 0.000216612
112.22 -0.000346162
112.23 -0.000865178
112.24 -0.00133491
112.25 -0.00175052
112.26 -0.00210698
112.27 -0.0023968
112.28 -0.00262232
112.29 -0.00278209
112.3 -0.00287546
112.31 -0.00290263
112.32 -0.00286462
112.33 -0.00276321
112.34 -0.00260096
112.35 -0.00237819
112.36 -0.00210025
112.37 -0.00177406
112.38 -0.00140478
112.39 -0.000998021
112.4 -0.000559774
112.41 -9.63184e-05
112.42 0.000385852
112.43 0.000880109
112.44 0.00137965
112.45 0.00187681
112.46 0.00236508
112.47 0.00283816
112.48 0.00329001
112.49 0.00371497
112.5 0.00410774
112.51 0.00446352
112.52 0.00477623
112.53 0.00504101
112.54 0.0052572
112.55 0.00542244
112.56 0.00553501
112.57 0.0055939
112.58 0.00559875
112.59 0.00554989
112.6 0.00544829
112.61 0.00529177
112.62 0.00508612
112.63 0.00483515
112.64 0.0045424
112.65 0.00421192
112.66 0.00384824
112.67 0.00345625
112.68 0.00304121
112.69 0.00260838
112.7 0.00216361
112.71 0.00171397
112.72 0.00126543
112.73 0.000823954
112.74 0.000395388
112.75 -1.45581e-05
112.76 -0.000400402
112.77 -0.000756951
112.78 -0.00107692
112.79 -0.00135655
112.8 -0.00159307
112.81 -0.00178317
112.82 -0.0019241
112.83 -0.00201373
112.84 -0.00205052
112.85 -0.00203363
112.86 -0.00196241
112.87 -0.00183327
112.88 -0.00165215
112.89 -0.001421
112.9 -0.00114239
112.91 -0.000819477
112.92 -0.000455987
112.93 -5.61589e-05
112.94 0.000375304
112.95 0.000834284
112.96 0.00131458
112.97 0.00180919
112.98 0.00231217
112.99 0.00281746
113 0.00331897
113.01 0.00381067
113.02 0.00428667
113.03 0.00474126
113.04 0.00516627
113.05 0.00555841
113.06 0.00591338
113.07 0.00622715
113.08 0.00649628
113.09 0.0067179
113.1 0.00688979
113.11 0.00701041
113.12 0.00707723
113.13 0.00708855
113.14 0.00704835
113.15 0.00695801
113.16 0.0068196
113.17 0.0066358
113.18 0.00640988
113.19 0.00614569
113.2 0.00584751
113.21 0.00551836
113.22 0.0051653
113.23 0.00479437
113.24 0.00441114
113.25 0.00402127
113.26 0.00363039
113.27 0.00324406
113.28 0.00286767
113.29 0.0025067
113.3 0.00216763
113.31 0.00185354
113.32 0.00156823
113.33 0.00131499
113.34 0.0010965
113.35 0.000914836
113.36 0.00077141
113.37 0.000666976
113.38 0.000603759
113.39 0.000580336
113.4 0.000593808
113.41 0.00064217
113.42 0.000722848
113.43 0.000832741
113.44 0.000968289
113.45 0.00112553
113.46 0.00130019
113.47 0.00148849
113.48 0.00168415
113.49 0.0018824
113.5 0.0020785
113.51 0.00226783
113.52 0.00244599
113.53 0.00260883
113.54 0.00275258
113.55 0.00287287
113.56 0.00296619
113.57 0.00303158
113.58 0.00306744
113.59 0.0030728
113.6 0.00304727
113.61 0.00299116
113.62 0.00290538
113.63 0.00279143
113.64 0.00264959
113.65 0.0024845
113.66 0.00229979
113.67 0.00209912
113.68 0.00188648
113.69 0.00166613
113.7 0.0014425
113.71 0.00122013
113.72 0.00100381
113.73 0.000798933
113.74 0.000609266
113.75 0.000438753
113.76 0.000290978
113.77 0.000169091
113.78 7.57478e-05
113.79 1.30531e-05
113.8 -1.74857e-05
113.81 -1.28577e-05
113.82 2.59731e-05
113.83 9.7407e-05
113.84 0.000200196
113.85 0.000332457
113.86 0.000491706
113.87 0.000674903
113.88 0.000878506
113.89 0.00109865
113.9 0.00133145
113.91 0.0015709
113.92 0.0018122
113.93 0.00205046
113.94 0.00228084
113.95 0.00249863
113.96 0.00269937
113.97 0.00287889
113.98 0.00303211
113.99 0.00315551
114 0.00324776
114.01 0.00330701
114.02 0.00333209
114.03 0.0033226
114.04 0.00327887
114.05 0.00320203
114.06 0.00309393
114.07 0.00295497
114.08 0.00279117
114.09 0.00260682
114.1 0.00240658
114.11 0.00219558
114.12 0.00197935
114.13 0.00176371
114.14 0.00155465
114.15 0.00135884
114.16 0.0011835
114.17 0.00103353
114.18 0.000914348
114.19 0.000830921
114.2 0.000787645
114.21 0.00078826
114.22 0.000835747
114.23 0.000932252
114.24 0.00108268
114.25 0.00128465
114.26 0.00153612
114.27 0.00183511
114.28 0.00217866
114.29 0.00256283
114.3 0.0029827
114.31 0.00343251
114.32 0.00390594
114.33 0.00439581
114.34 0.00489236
114.35 0.00538713
114.36 0.00587132
114.37 0.00633598
114.38 0.00677213
114.39 0.00717094
114.4 0.00752385
114.41 0.00781926
114.42 0.00804991
114.43 0.0082113
114.44 0.00829777
114.45 0.00830468
114.46 0.00822852
114.47 0.00806699
114.48 0.00781906
114.49 0.00748488
114.5 0.00705873
114.51 0.00655189
114.52 0.00596904
114.53 0.0053161
114.54 0.00460024
114.55 0.00382973
114.56 0.00301386
114.57 0.0021628
114.58 0.00128698
114.59 0.000399231
114.6 -0.00048724
114.61 -0.00136026
114.62 -0.00220766
114.63 -0.00301744
114.64 -0.003778
114.65 -0.00447829
114.66 -0.00510798
114.67 -0.0056505
114.68 -0.00610228
114.69 -0.00645756
114.7 -0.00671084
114.71 -0.00685803
114.72 -0.00689658
114.73 -0.00682548
114.74 -0.00664533
114.75 -0.00635565
114.76 -0.00595635
114.77 -0.00546035
114.78 -0.00487468
114.79 -0.00420768
114.8 -0.00346887
114.81 -0.00266884
114.82 -0.00181905
114.83 -0.000931688
114.84 -1.87166e-05
114.85 0.000904473
114.86 0.00182401
114.87 0.00272683
114.88 0.00360019
114.89 0.00443185
114.9 0.00521027
114.91 0.00592479
114.92 0.00656492
114.93 0.00711538
114.94 0.00757566
114.95 0.00794032
114.96 0.00820543
114.97 0.0083686
114.98 0.00842901
114.99 0.00838739
115 0.00824601
115.01 0.00800415
115.02 0.00766825
115.03 0.00724939
115.04 0.00675549
115.05 0.00619552
115.06 0.00557928
115.07 0.00491729
115.08 0.00422058
115.09 0.0035005
115.1 0.00276853
115.11 0.00203803
115.12 0.0013202
115.13 0.000625709
115.14 -3.54096e-05
115.15 -0.000653893
115.16 -0.00122141
115.17 -0.00173066
115.18 -0.00217316
115.19 -0.00254172
115.2 -0.002837
115.21 -0.00305705
115.22 -0.00320124
115.23 -0.0032703
115.24 -0.00326623
115.25 -0.00319227
115.26 -0.00305283
115.27 -0.00284941
115.28 -0.0025923
115.29 -0.00229011
115.3 -0.00195081
115.31 -0.00158283
115.32 -0.00119492
115.33 -0.000795933
115.34 -0.000394732
115.35 -2.59285e-07
115.36 0.000377479
115.37 0.000731393
115.38 0.00105446
115.39 0.00134046
115.4 0.00158404
115.41 0.00178084
115.42 0.00192752
115.43 0.00202186
115.44 0.00205963
115.45 0.00204213
115.46 0.00197269
115.47 0.00185374
115.48 0.00168869
115.49 0.0014819
115.5 0.00123853
115.51 0.000964462
115.52 0.000666149
115.53 0.000349707
115.54 2.45879e-05
115.55 -0.000301728
115.56 -0.000621762
115.57 -0.00092818
115.58 -0.00121393
115.59 -0.00147239
115.6 -0.00169747
115.61 -0.00188189
115.62 -0.00202007
115.63 -0.00211047
115.64 -0.00215041
115.65 -0.00213819
115.66 -0.00207312
115.67 -0.00195552
115.68 -0.00178671
115.69 -0.00156902
115.7 -0.0013023
115.71 -0.000994321
115.72 -0.000650743
115.73 -0.000277323
115.74 0.000119621
115.75 0.000533321
115.76 0.000956691
115.77 0.00138245
115.78 0.00180293
115.79 0.00220958
115.8 0.00259581
115.81 0.00295503
115.82 0.00328113
115.83 0.00356857
115.84 0.00381255
115.85 0.004009
115.86 0.00415475
115.87 0.00424388
115.88 0.00427704
115.89 0.00425559
115.9 0.0041803
115.91 0.00405292
115.92 0.00387608
115.93 0.00365327
115.94 0.00338875
115.95 0.00308717
115.96 0.00275249
115.97 0.00239388
115.98 0.00201792
115.99 0.00163139
116 0.00124123
116.01 0.000854355
116.02 0.000477559
116.03 0.000117393
116.04 -0.000218497
116.05 -0.000523896
116.06 -0.000794833
116.07 -0.00102697
116.08 -0.00121673
116.09 -0.00136133
116.1 -0.00145881
116.11 -0.00150811
116.12 -0.00150905
116.13 -0.00145817
116.14 -0.00136137
116.15 -0.00122143
116.16 -0.00104167
116.17 -0.000826115
116.18 -0.000579402
116.19 -0.000306699
116.2 -1.36092e-05
116.21 0.000294207
116.22 0.000610035
116.23 0.000926776
116.24 0.00123816
116.25 0.00153806
116.26 0.00182056
116.27 0.0020801
116.28 0.00231153
116.29 0.00251022
116.3 0.0026691
116.31 0.00278655
116.32 0.00286074
116.33 0.00288987
116.34 0.00287286
116.35 0.00280942
116.36 0.0027
116.37 0.00254577
116.38 0.00234784
116.39 0.00210684
116.4 0.00182923
116.41 0.00151879
116.42 0.00117975
116.43 0.000816706
116.44 0.00043451
116.45 3.82171e-05
116.46 -0.00036702
116.47 -0.00077595
116.48 -0.00118283
116.49 -0.00158267
116.5 -0.00197085
116.51 -0.00234307
116.52 -0.00269543
116.53 -0.00302445
116.54 -0.00332717
116.55 -0.00360097
116.56 -0.00384114
116.57 -0.00404906
116.58 -0.00422403
116.59 -0.00436587
116.6 -0.00447493
116.61 -0.00455204
116.62 -0.00459844
116.63 -0.00461582
116.64 -0.00460509
116.65 -0.00456867
116.66 -0.00451047
116.67 -0.00443318
116.68 -0.00433956
116.69 -0.00423239
116.7 -0.0041144
116.71 -0.00398822
116.72 -0.00385629
116.73 -0.00372076
116.74 -0.00358401
116.75 -0.00344774
116.76 -0.00331329
116.77 -0.00318166
116.78 -0.00305353
116.79 -0.00292924
116.8 -0.00280882
116.81 -0.00269206
116.82 -0.00257841
116.83 -0.00246679
116.84 -0.00235613
116.85 -0.00224522
116.86 -0.00213275
116.87 -0.00201735
116.88 -0.00189765
116.89 -0.00177234
116.9 -0.00163967
116.91 -0.00149876
116.92 -0.00134899
116.93 -0.00118978
116.94 -0.00102086
116.95 -0.000842232
116.96 -0.000654252
116.97 -0.0004576
116.98 -0.000253228
116.99 -4.22335e-05
117 0.000173005
117.01 0.000390426
117.02 0.000607699
117.03 0.000822267
117.04 0.00103139
117.05 0.00123218
117.06 0.00142168
117.07 0.00159601
117.08 0.00175198
117.09 0.00188742
117.1 0.00199968
117.11 0.00208634
117.12 0.00214531
117.13 0.0021748
117.14 0.00217344
117.15 0.00214028
117.16 0.0020719
117.17 0.00197123
117.18 0.00183902
117.19 0.00167645
117.2 0.00148517
117.21 0.00126739
117.22 0.00102576
117.23 0.000763373
117.24 0.000483285
117.25 0.000189562
117.26 -0.000112583
117.27 -0.000418701
117.28 -0.000724192
117.29 -0.00102438
117.3 -0.00131458
117.31 -0.00159021
117.32 -0.0018468
117.33 -0.0020781
117.34 -0.00228118
117.35 -0.00245306
117.36 -0.00259075
117.37 -0.00269179
117.38 -0.00275426
117.39 -0.00277683
117.4 -0.00275882
117.41 -0.00269935
117.42 -0.002597
117.43 -0.00245619
117.44 -0.00227893
117.45 -0.00206784
117.46 -0.00182612
117.47 -0.00155747
117.48 -0.00126603
117.49 -0.000956369
117.5 -0.000632867
117.51 -0.000301593
117.52 3.17147e-05
117.53 0.000361707
117.54 0.000683073
117.55 0.000990628
117.56 0.0012794
117.57 0.00154469
117.58 0.00178206
117.59 0.00198462
117.6 0.00215171
117.61 0.00228069
117.62 0.00236955
117.63 0.00241695
117.64 0.00242222
117.65 0.00238542
117.66 0.00230728
117.67 0.00218757
117.68 0.00202852
117.69 0.001835
117.7 0.00161047
117.71 0.0013589
117.72 0.00108472
117.73 0.00079273
117.74 0.000488029
117.75 0.000175932
117.76 -0.000137831
117.77 -0.000447175
117.78 -0.000746723
117.79 -0.00103129
117.8 -0.00129597
117.81 -0.00153622
117.82 -0.0017479
117.83 -0.00192743
117.84 -0.00207067
117.85 -0.00217363
117.86 -0.0022371
117.87 -0.0022602
117.88 -0.00224283
117.89 -0.0021856
117.9 -0.00208987
117.91 -0.00195768
117.92 -0.0017918
117.93 -0.00159382
117.94 -0.00136949
117.95 -0.0011242
117.96 -0.000863001
117.97 -0.000591286
117.98 -0.000314703
117.99 -3.90686e-05
118 0.000229731
118.01 0.000485594
118.02 0.000720967
118.03 0.000931534
118.04 0.00111221
118.05 0.00125837
118.06 0.00136586
118.07 0.00143118
118.08 0.00145144
118.09 0.00142449
118.1 0.00134633
118.11 0.00121691
118.12 0.00103866
118.13 0.000812789
118.14 0.000541309
118.15 0.000227009
118.16 -0.000126573
118.17 -0.000515203
118.18 -0.000934009
118.19 -0.00137928
118.2 -0.00184232
118.21 -0.00231668
118.22 -0.00279566
118.23 -0.00327242
118.24 -0.00374002
118.25 -0.00419158
118.26 -0.00462035
118.27 -0.0050185
118.28 -0.00537848
118.29 -0.00569645
118.3 -0.0059674
118.31 -0.00618697
118.32 -0.0063515
118.33 -0.00645813
118.34 -0.00650482
118.35 -0.00649036
118.36 -0.00640983
118.37 -0.00626758
118.38 -0.00606643
118.39 -0.00580894
118.4 -0.00549848
118.41 -0.00513922
118.42 -0.00473606
118.43 -0.00429453
118.44 -0.0038202
118.45 -0.00331909
118.46 -0.00280053
118.47 -0.0022718
118.48 -0.00174034
118.49 -0.00121358
118.5 -0.000698902
118.51 -0.000203473
118.52 0.000265834
118.53 0.000700195
118.54 0.00109394
118.55 0.00144296
118.56 0.00174273
118.57 0.00198947
118.58 0.00218021
118.59 0.00231283
118.6 0.00238607
118.61 0.00239925
118.62 0.00234813
118.63 0.00223962
118.64 0.00207619
118.65 0.00186108
118.66 0.00159829
118.67 0.00129249
118.68 0.000948911
118.69 0.000573334
118.7 0.000171066
118.71 -0.000250627
118.72 -0.000683794
118.73 -0.00112165
118.74 -0.00155744
118.75 -0.00198457
118.76 -0.0023967
118.77 -0.00278783
118.78 -0.0031524
118.79 -0.00348233
118.8 -0.00377531
118.81 -0.00402805
118.82 -0.00423773
118.83 -0.00440228
118.84 -0.00452043
118.85 -0.00459172
118.86 -0.00461652
118.87 -0.00459468
118.88 -0.00452689
118.89 -0.00441888
118.9 -0.00427409
118.91 -0.00409654
118.92 -0.00389077
118.93 -0.00366173
118.94 -0.0034147
118.95 -0.00315519
118.96 -0.00288879
118.97 -0.00262205
118.98 -0.00236068
118.99 -0.00211005
119 -0.00187523
119.01 -0.00166091
119.02 -0.00147129
119.03 -0.00131005
119.04 -0.00118076
119.05 -0.00108824
119.06 -0.00103148
119.07 -0.00101131
119.08 -0.0010278
119.09 -0.00108029
119.1 -0.00116741
119.11 -0.00128708
119.12 -0.00143658
119.13 -0.00161379
119.14 -0.00181398
119.15 -0.00203167
119.16 -0.00226209
119.17 -0.00250022
119.18 -0.00274085
119.19 -0.00297871
119.2 -0.00320857
119.21 -0.00342531
119.22 -0.00362195
119.23 -0.00379528
119.24 -0.00394128
119.25 -0.00405643
119.26 -0.00413777
119.27 -0.00418298
119.28 -0.00419044
119.29 -0.00415922
119.3 -0.00408769
119.31 -0.0039759
119.32 -0.00382752
119.33 -0.00364477
119.34 -0.00343053
119.35 -0.00318833
119.36 -0.00292224
119.37 -0.00263687
119.38 -0.00233723
119.39 -0.0020284
119.4 -0.00171706
119.41 -0.00140908
119.42 -0.00111019
119.43 -0.000826009
119.44 -0.000561971
119.45 -0.000323194
119.46 -0.000114401
119.47 5.93151e-05
119.48 0.000192072
119.49 0.000283512
119.5 0.000331477
119.51 0.000334562
119.52 0.000292149
119.53 0.000204418
119.54 7.23542e-05
119.55 -0.000102268
119.56 -0.000319178
119.57 -0.000573475
119.58 -0.000859783
119.59 -0.00117344
119.6 -0.00150928
119.61 -0.00186172
119.62 -0.00222487
119.63 -0.00259261
119.64 -0.00295866
119.65 -0.00331558
119.66 -0.00365753
119.67 -0.00397872
119.68 -0.0042737
119.69 -0.00453749
119.7 -0.00476562
119.71 -0.00495429
119.72 -0.00510037
119.73 -0.00519933
119.74 -0.00524941
119.75 -0.00525225
119.76 -0.00520815
119.77 -0.00511826
119.78 -0.00498455
119.79 -0.00480976
119.8 -0.00459739
119.81 -0.00435164
119.82 -0.00407528
119.83 -0.00377636
119.84 -0.00346095
119.85 -0.00313516
119.86 -0.00280528
119.87 -0.00247769
119.88 -0.0021587
119.89 -0.00185448
119.9 -0.00157175
119.91 -0.00131748
119.92 -0.0010952
119.93 -0.000909219
119.94 -0.000763181
119.95 -0.000659976
119.96 -0.000601702
119.97 -0.000589618
119.98 -0.000624122
119.99 -0.000707879
120 -0.000837167
120.01 -0.00100849
120.02 -0.00121867
120.03 -0.0014638
120.04 -0.00173932
120.05 -0.00204005
120.06 -0.00236034
120.07 -0.00269424
120.08 -0.0030352
120.09 -0.0033757
120.1 -0.00370921
120.11 -0.00402927
120.12 -0.00432966
120.13 -0.00460451
120.14 -0.00484834
120.15 -0.00505625
120.16 -0.00522154
120.17 -0.0053409
120.18 -0.00541336
120.19 -0.00543713
120.2 -0.00541132
120.21 -0.00533592
120.22 -0.00521182
120.23 -0.00504078
120.24 -0.0048254
120.25 -0.00456565
120.26 -0.00426994
120.27 -0.00394327
120.28 -0.00359113
120.29 -0.00321952
120.3 -0.00283475
120.31 -0.00244338
120.32 -0.00205208
120.33 -0.00166805
120.34 -0.00129884
120.35 -0.000950229
120.36 -0.000628062
120.37 -0.000337674
120.38 -8.38135e-05
120.39 0.000129449
120.4 0.000298792
120.41 0.000421704
120.42 0.000492698
120.43 0.000514081
120.44 0.000486976
120.45 0.000412625
120.46 0.000293143
120.47 0.00013148
120.48 -6.86399e-05
120.49 -0.000302778
120.5 -0.000566407
120.51 -0.00085436
120.52 -0.00115851
120.53 -0.00147245
120.54 -0.00178957
120.55 -0.00210324
120.56 -0.00240687
120.57 -0.00269406
120.58 -0.00295872
120.59 -0.00319307
120.6 -0.00339233
120.61 -0.00355303
120.62 -0.00367151
120.63 -0.00374488
120.64 -0.00377109
120.65 -0.00374897
120.66 -0.00367825
120.67 -0.00355918
120.68 -0.00338987
120.69 -0.00317705
120.7 -0.00292412
120.71 -0.00263522
120.72 -0.00231518
120.73 -0.00196941
120.74 -0.00160383
120.75 -0.00122475
120.76 -0.000838741
120.77 -0.000453448
120.78 -7.59402e-05
120.79 0.000287105
120.8 0.000629228
120.81 0.000944305
120.82 0.00122665
120.83 0.0014711
120.84 0.00167314
120.85 0.00182464
120.86 0.00192606
120.87 0.00197569
120.88 0.00197232
120.89 0.0019156
120.9 0.00180604
120.91 0.00164502
120.92 0.0014347
120.93 0.0011767
120.94 0.000873859
120.95 0.000533519
120.96 0.000160665
120.97 -0.000239272
120.98 -0.00066051
120.99 -0.00109703
121 -0.00154267
121.01 -0.00199126
121.02 -0.00243604
121.03 -0.00287069
121.04 -0.00328975
121.05 -0.00368808
121.06 -0.00406105
121.07 -0.00440454
121.08 -0.0047151
121.09 -0.0049899
121.1 -0.0052262
121.11 -0.0054201
121.12 -0.0055741
121.13 -0.00568842
121.14 -0.00576399
121.15 -0.00580237
121.16 -0.00580574
121.17 -0.00577681
121.18 -0.00571878
121.19 -0.00563404
121.2 -0.00552742
121.21 -0.00540405
121.22 -0.00526819
121.23 -0.00512411
121.24 -0.00497598
121.25 -0.00482782
121.26 -0.00468339
121.27 -0.00454611
121.28 -0.00442019
121.29 -0.00430733
121.3 -0.00420945
121.31 -0.00412788
121.32 -0.00406337
121.33 -0.00401611
121.34 -0.00398565
121.35 -0.00397099
121.36 -0.00397107
121.37 -0.00398369
121.38 -0.00400546
121.39 -0.0040334
121.4 -0.0040642
121.41 -0.00409433
121.42 -0.00412013
121.43 -0.00413786
121.44 -0.00414383
121.45 -0.00413295
121.46 -0.00410258
121.47 -0.00404994
121.48 -0.00397244
121.49 -0.0038679
121.5 -0.0037347
121.51 -0.00357176
121.52 -0.00337861
121.53 -0.0031547
121.54 -0.00289968
121.55 -0.00261726
121.56 -0.00230969
121.57 -0.00197982
121.58 -0.00163106
121.59 -0.00126734
121.6 -0.000893053
121.61 -0.000512958
121.62 -0.000132419
121.63 0.000242653
121.64 0.000606839
121.65 0.000954721
121.66 0.00128098
121.67 0.00158048
121.68 0.00184837
121.69 0.00208019
121.7 0.00227153
121.71 0.00241527
121.72 0.00251217
121.73 0.00256019
121.74 0.00255798
121.75 0.00250494
121.76 0.00240126
121.77 0.00224785
121.78 0.00204642
121.79 0.00179735
121.8 0.00150435
121.81 0.00117343
121.82 0.000809112
121.83 0.00041638
121.84 6.65556e-07
121.85 -0.000432272
121.86 -0.000876431
121.87 -0.00132567
121.88 -0.00177314
121.89 -0.00221233
121.9 -0.0026373
121.91 -0.00304243
121.92 -0.00342243
121.93 -0.00377247
121.94 -0.00408824
121.95 -0.00436603
121.96 -0.00460134
121.97 -0.00479033
121.98 -0.00493405
121.99 -0.00503174
122 -0.0050834
122.01 -0.00508972
122.02 -0.00505212
122.03 -0.00497269
122.04 -0.00485411
122.05 -0.00469736
122.06 -0.00450843
122.07 -0.00429241
122.08 -0.00405388
122.09 -0.00379768
122.1 -0.0035288
122.11 -0.00325226
122.12 -0.00297306
122.13 -0.0026962
122.14 -0.00242724
122.15 -0.00217023
122.16 -0.00192911
122.17 -0.00170735
122.18 -0.00150794
122.19 -0.00133334
122.2 -0.00118543
122.21 -0.0010655
122.22 -0.000975888
122.23 -0.00091608
122.24 -0.000884372
122.25 -0.000879595
122.26 -0.000900069
122.27 -0.000943649
122.28 -0.00100777
122.29 -0.00108954
122.3 -0.00118576
122.31 -0.00129372
122.32 -0.00140857
122.33 -0.00152672
122.34 -0.0016446
122.35 -0.0017588
122.36 -0.00186606
122.37 -0.00196338
122.38 -0.00204807
122.39 -0.00211712
122.4 -0.00216825
122.41 -0.00220091
122.42 -0.00221425
122.43 -0.00220791
122.44 -0.00218203
122.45 -0.00213725
122.46 -0.00207467
122.47 -0.00199587
122.48 -0.00190188
122.49 -0.00179629
122.5 -0.00168206
122.51 -0.00156218
122.52 -0.00143986
122.53 -0.00131841
122.54 -0.00120119
122.55 -0.00109154
122.56 -0.000993082
122.57 -0.000909819
122.58 -0.00084377
122.59 -0.000797424
122.6 -0.00077291
122.61 -0.000771946
122.62 -0.000795805
122.63 -0.00084528
122.64 -0.000920659
122.65 -0.00102333
122.66 -0.00115149
122.67 -0.001303
122.68 -0.001476
122.69 -0.00166815
122.7 -0.0018767
122.71 -0.00209852
122.72 -0.00233015
122.73 -0.00256789
122.74 -0.00280753
122.75 -0.00304455
122.76 -0.00327479
122.77 -0.00349416
122.78 -0.00369864
122.79 -0.00388441
122.8 -0.00404787
122.81 -0.00418573
122.82 -0.00429354
122.83 -0.00436867
122.84 -0.00441051
122.85 -0.00441766
122.86 -0.00438928
122.87 -0.00432509
122.88 -0.00422538
122.89 -0.00409102
122.9 -0.00392346
122.91 -0.00372213
122.92 -0.00349243
122.93 -0.00323764
122.94 -0.0029613
122.95 -0.00266732
122.96 -0.00235992
122.97 -0.00204357
122.98 -0.00172295
122.99 -0.00140301
123 -0.00108927
123.01 -0.000786423
123.02 -0.0004991
123.03 -0.000231731
123.04 1.15187e-05
123.05 0.00022681
123.06 0.000410693
123.07 0.000560153
123.08 0.000669806
123.09 0.000739447
123.1 0.000768545
123.11 0.000756357
123.12 0.000702722
123.13 0.00060807
123.14 0.000473409
123.15 0.00030031
123.16 9.02791e-05
123.17 -0.000155692
123.18 -0.000431662
123.19 -0.000734027
123.2 -0.00105883
123.21 -0.0014018
123.22 -0.00175846
123.23 -0.00212411
123.24 -0.002494
123.25 -0.00286296
123.26 -0.00322567
123.27 -0.00357751
123.28 -0.00391396
123.29 -0.00423077
123.3 -0.00452396
123.31 -0.00478989
123.32 -0.00502531
123.33 -0.0052273
123.34 -0.0053901
123.35 -0.00551508
123.36 -0.00560097
123.37 -0.00564703
123.38 -0.00565306
123.39 -0.00561937
123.4 -0.00554677
123.41 -0.00543657
123.42 -0.00528913
123.43 -0.00510666
123.44 -0.00489371
123.45 -0.00465334
123.46 -0.00438889
123.47 -0.00410398
123.48 -0.0038024
123.49 -0.00348811
123.5 -0.00316516
123.51 -0.00283757
123.52 -0.00251009
123.53 -0.00218671
123.54 -0.00187125
123.55 -0.00156732
123.56 -0.00127831
123.57 -0.00100729
123.58 -0.000757046
123.59 -0.000530665
123.6 -0.000331409
123.61 -0.000159202
123.62 -1.51401e-05
123.63 0.00010012
123.64 0.000186361
123.65 0.000243809
123.66 0.000273119
123.67 0.000275363
123.68 0.000250451
123.69 0.00020143
123.7 0.000131286
123.71 4.25705e-05
123.72 -6.19069e-05
123.73 -0.000179128
123.74 -0.000305909
123.75 -0.000438953
123.76 -0.000574892
123.77 -0.000709976
123.78 -0.000840698
123.79 -0.00096385
123.8 -0.00107638
123.81 -0.00117546
123.82 -0.00125848
123.83 -0.00132314
123.84 -0.00136749
123.85 -0.00138875
123.86 -0.00138575
123.87 -0.00135879
123.88 -0.00130759
123.89 -0.00123237
123.9 -0.00113376
123.91 -0.00101283
123.92 -0.000871115
123.93 -0.000710524
123.94 -0.000532129
123.95 -0.000340286
123.96 -0.000138125
123.97 7.10349e-05
123.98 0.000283663
123.99 0.000496069
124 0.00070446
124.01 0.000905001
124.02 0.00109334
124.03 0.00126492
124.04 0.00141693
124.05 0.00154607
124.06 0.00164929
124.07 0.00172392
124.08 0.00176764
124.09 0.00177861
124.1 0.00175544
124.11 0.00169466
124.12 0.0015979
124.13 0.00146624
124.14 0.00130065
124.15 0.00110267
124.16 0.000874376
124.17 0.000618429
124.18 0.000337986
124.19 3.63705e-05
124.2 -0.000282801
124.21 -0.000613465
124.22 -0.000950785
124.23 -0.00128969
124.24 -0.00162497
124.25 -0.00195132
124.26 -0.00226344
124.27 -0.00255615
124.28 -0.00282269
124.29 -0.00305836
124.3 -0.00325974
124.31 -0.00342296
124.32 -0.00354466
124.33 -0.00362209
124.34 -0.00365311
124.35 -0.00363629
124.36 -0.00357076
124.37 -0.00345242
124.38 -0.00328673
124.39 -0.0030755
124.4 -0.00282129
124.41 -0.00252746
124.42 -0.00219803
124.43 -0.00183773
124.44 -0.00145186
124.45 -0.00104571
124.46 -0.000626315
124.47 -0.00020139
124.48 0.000222094
124.49 0.000637027
124.5 0.00103628
124.51 0.00141281
124.52 0.00175979
124.53 0.00207068
124.54 0.00233545
124.55 0.00255111
124.56 0.00271339
124.57 0.00281827
124.58 0.00286256
124.59 0.00284394
124.6 0.00276103
124.61 0.00261343
124.62 0.00240006
124.63 0.00212038
124.64 0.00178154
124.65 0.0013874
124.66 0.000942742
124.67 0.000453237
124.68 -7.46516e-05
124.69 -0.000633741
124.7 -0.00121623
124.71 -0.00181422
124.72 -0.00241744
124.73 -0.00301651
124.74 -0.00360235
124.75 -0.00416592
124.76 -0.00469837
124.77 -0.00519118
124.78 -0.00563627
124.79 -0.00602541
124.8 -0.00634684
124.81 -0.00659945
124.82 -0.00677844
124.83 -0.00688002
124.84 -0.00690148
124.85 -0.00684125
124.86 -0.00669894
124.87 -0.00647534
124.88 -0.00616851
124.89 -0.00578277
124.9 -0.00532603
124.91 -0.00480384
124.92 -0.00422271
124.93 -0.00359001
124.94 -0.00291386
124.95 -0.00220306
124.96 -0.00146688
124.97 -0.00071445
124.98 4.21561e-05
124.99 0.000792937
125 0.00152806
125.01 0.00223796
125.02 0.00291347
125.03 0.00354596
125.04 0.00412748
125.05 0.00464855
125.06 0.00510078
125.07 0.00548259
125.08 0.00579002
125.09 0.00602022
125.1 0.0061715
125.11 0.00624336
125.12 0.00623645
125.13 0.00615261
125.14 0.00598948
125.15 0.00575573
125.16 0.00545797
125.17 0.00510223
125.18 0.00469529
125.19 0.00424461
125.2 0.00375812
125.21 0.00324415
125.22 0.00271108
125.23 0.00216795
125.24 0.00162467
125.25 0.00108962
125.26 0.000570819
125.27 7.5837e-05
125.28 -0.000388356
125.29 -0.000815475
125.3 -0.00120001
125.31 -0.00153428
125.32 -0.0018154
125.33 -0.00204251
125.34 -0.00221406
125.35 -0.00232947
125.36 -0.00238916
125.37 -0.00239451
125.38 -0.00234779
125.39 -0.0022519
125.4 -0.00210735
125.41 -0.00192319
125.42 -0.00170471
125.43 -0.00145763
125.44 -0.00118802
125.45 -0.000902162
125.46 -0.000606437
125.47 -0.000307214
125.48 -1.11256e-05
125.49 0.000275069
125.5 0.000546011
125.51 0.000796633
125.52 0.00102242
125.53 0.00121948
125.54 0.00138461
125.55 0.00151531
125.56 0.00160986
125.57 0.00166418
125.58 0.00168087
125.59 0.00166108
125.6 0.00160624
125.61 0.00151847
125.62 0.00140048
125.63 0.00125553
125.64 0.00108734
125.65 0.000899581
125.66 0.000696606
125.67 0.00048423
125.68 0.000267108
125.69 4.98642e-05
125.7 -0.000163005
125.71 -0.000367217
125.72 -0.00055879
125.73 -0.000734117
125.74 -0.000888531
125.75 -0.00101997
125.76 -0.00112697
125.77 -0.00120814
125.78 -0.00126268
125.79 -0.00129039
125.8 -0.0012917
125.81 -0.00126756
125.82 -0.00121924
125.83 -0.0011475
125.84 -0.00105683
125.85 -0.000950173
125.86 -0.000830731
125.87 -0.000701934
125.88 -0.000567344
125.89 -0.000430569
125.9 -0.000295185
125.91 -0.000165083
125.92 -4.38441e-05
125.93 6.58331e-05
125.94 0.00016138
125.95 0.000240637
125.96 0.000301898
125.97 0.000343948
125.98 0.000366089
125.99 0.000368154
126 0.000348778
126.01 0.000310763
126.02 0.00025566
126.03 0.000185424
126.04 0.000102418
126.05 9.35815e-06
126.06 -9.07491e-05
126.07 -0.000194679
126.08 -0.000298947
126.09 -0.000399644
126.1 -0.000493376
126.11 -0.000576867
126.12 -0.000647044
126.13 -0.000701108
126.14 -0.000736604
126.15 -0.000751485
126.16 -0.000744165
126.17 -0.00071175
126.18 -0.000655088
126.19 -0.000574768
126.2 -0.000471528
126.21 -0.000346677
126.22 -0.000202073
126.23 -4.00984e-05
126.24 0.000136383
126.25 0.000324232
126.26 0.00051975
126.27 0.000718139
126.28 0.00091519
126.29 0.00110659
126.3 0.00128799
126.31 0.00145514
126.32 0.00160392
126.33 0.00173049
126.34 0.00182955
126.35 0.00189843
126.36 0.00193552
126.37 0.00193891
126.38 0.0019073
126.39 0.00184006
126.4 0.00173725
126.41 0.00159963
126.42 0.00142848
126.43 0.00122362
126.44 0.00099095
126.45 0.000734035
126.46 0.000456986
126.47 0.000164395
126.48 -0.000138747
126.49 -0.000447132
126.5 -0.000755235
126.51 -0.00105688
126.52 -0.00134564
126.53 -0.00161633
126.54 -0.00186365
126.55 -0.00208263
126.56 -0.00226873
126.57 -0.00241794
126.58 -0.00252682
126.59 -0.00259262
126.6 -0.00260941
126.61 -0.00257932
126.62 -0.00250256
126.63 -0.00237974
126.64 -0.00221228
126.65 -0.00200242
126.66 -0.00175319
126.67 -0.00146833
126.68 -0.00115151
126.69 -0.000807487
126.7 -0.000443894
126.71 -6.6775e-05
126.72 0.000317538
126.73 0.000702542
126.74 0.00108167
126.75 0.00144843
126.76 0.0017965
126.77 0.00211773
126.78 0.00240707
126.79 0.00266019
126.8 0.00287273
126.81 0.00304105
126.82 0.00316231
126.83 0.00323446
126.84 0.00325636
126.85 0.00322706
126.86 0.00314405
126.87 0.00301317
126.88 0.00283705
126.89 0.00261913
126.9 0.00236363
126.91 0.00207543
126.92 0.00176004
126.93 0.00142344
126.94 0.00107161
126.95 0.000712241
126.96 0.00035275
126.97 -1.7426e-08
126.98 -0.000339339
126.99 -0.000658736
127 -0.000952095
127.01 -0.00121377
127.02 -0.00143871
127.03 -0.00161835
127.04 -0.00175265
127.05 -0.00183905
127.06 -0.00187584
127.07 -0.00186219
127.08 -0.00179821
127.09 -0.00168493
127.1 -0.00152433
127.11 -0.00131768
127.12 -0.00106843
127.13 -0.000783648
127.14 -0.000468595
127.15 -0.000129079
127.16 0.000228632
127.17 0.000597922
127.18 0.000971948
127.19 0.00134376
127.2 0.0017052
127.21 0.00204943
127.22 0.00237019
127.23 0.00266149
127.24 0.00291783
127.25 0.00313438
127.26 0.00330698
127.27 0.00343227
127.28 0.0035066
127.29 0.0035257
127.3 0.00349271
127.31 0.00340807
127.32 0.00327318
127.33 0.0030903
127.34 0.00286257
127.35 0.00259393
127.36 0.00228904
127.37 0.00195171
127.38 0.00158942
127.39 0.00120961
127.4 0.000818985
127.41 0.000424482
127.42 3.30937e-05
127.43 -0.000348233
127.44 -0.00071272
127.45 -0.00105367
127.46 -0.00136205
127.47 -0.00163453
127.48 -0.00186626
127.49 -0.0020531
127.5 -0.00219165
127.51 -0.00227934
127.52 -0.00231446
127.53 -0.00229618
127.54 -0.00222212
127.55 -0.00209334
127.56 -0.00191439
127.57 -0.0016881
127.58 -0.00141799
127.59 -0.00110832
127.6 -0.00076393
127.61 -0.0003902
127.62 7.07054e-06
127.63 0.000422694
127.64 0.000848414
127.65 0.00127761
127.66 0.00170385
127.67 0.00212083
127.68 0.00252246
127.69 0.00290302
127.7 0.00325719
127.71 0.00357905
127.72 0.00386276
127.73 0.00410691
127.74 0.00430875
127.75 0.00446623
127.76 0.00457808
127.77 0.00464374
127.78 0.00466341
127.79 0.004638
127.8 0.00456625
127.81 0.00445269
127.82 0.00430135
127.83 0.00411571
127.84 0.00389968
127.85 0.00365752
127.86 0.00339378
127.87 0.0031132
127.88 0.00282051
127.89 0.00252062
127.9 0.00221918
127.91 0.00192079
127.92 0.00162982
127.93 0.00135031
127.94 0.00108596
127.95 0.000840034
127.96 0.000615359
127.97 0.000415642
127.98 0.000242511
127.99 9.61817e-05
128 -2.26977e-05
128.01 -0.000113987
128.02 -0.000178037
128.03 -0.000215656
128.04 -0.000228076
128.05 -0.000216908
128.06 -0.000182271
128.07 -0.000128609
128.08 -5.8409e-05
128.09 2.57173e-05
128.1 0.000121078
128.11 0.000224962
128.12 0.000334696
128.13 0.0004477
128.14 0.000561481
128.15 0.000673523
128.16 0.000781848
128.17 0.000884776
128.18 0.000980926
128.19 0.00106923
128.2 0.00114895
128.21 0.00121967
128.22 0.0012813
128.23 0.00133339
128.24 0.0013771
128.25 0.0014134
128.26 0.00144334
128.27 0.00146816
128.28 0.00148926
128.29 0.00150813
128.3 0.00152634
128.31 0.00154554
128.32 0.00156756
128.33 0.00159379
128.34 0.00162559
128.35 0.00166415
128.36 0.00171049
128.37 0.0017654
128.38 0.00182946
128.39 0.00190299
128.4 0.00198661
128.41 0.00207977
128.42 0.00218163
128.43 0.00229139
128.44 0.00240804
128.45 0.00253032
128.46 0.00265679
128.47 0.00278586
128.48 0.00291577
128.49 0.00304442
128.5 0.00316985
128.51 0.00329014
128.52 0.00340339
128.53 0.00350779
128.54 0.00360159
128.55 0.0036832
128.56 0.00375118
128.57 0.00380355
128.58 0.00383918
128.59 0.00385805
128.6 0.0038597
128.61 0.00384393
128.62 0.00381079
128.63 0.00376061
128.64 0.00369399
128.65 0.00361176
128.66 0.00351384
128.67 0.00340282
128.68 0.00328032
128.69 0.00314801
128.7 0.0030077
128.71 0.00286128
128.72 0.00271071
128.73 0.00255799
128.74 0.00240516
128.75 0.00225445
128.76 0.00210773
128.77 0.00196676
128.78 0.00183319
128.79 0.0017085
128.8 0.00159401
128.81 0.00149086
128.82 0.00139998
128.83 0.00132306
128.84 0.00126
128.85 0.00121076
128.86 0.00117535
128.87 0.00115361
128.88 0.00114515
128.89 0.00114943
128.9 0.00116572
128.91 0.00119328
128.92 0.00123162
128.93 0.00127871
128.94 0.0013333
128.95 0.00139405
128.96 0.00145961
128.97 0.00152856
128.98 0.00159951
128.99 0.00167103
129 0.00174165
129.01 0.00180989
129.02 0.00187452
129.03 0.00193438
129.04 0.00198837
129.05 0.00203549
129.06 0.00207485
129.07 0.00210568
129.08 0.0021273
129.09 0.00213822
129.1 0.00213895
129.11 0.00212922
129.12 0.0021089
129.13 0.00207801
129.14 0.00203667
129.15 0.00198514
129.16 0.00192383
129.17 0.00185291
129.18 0.001773
129.19 0.00168539
129.2 0.00159102
129.21 0.00149093
129.22 0.00138628
129.23 0.00127834
129.24 0.00116848
129.25 0.00105818
129.26 0.00094923
129.27 0.000843366
129.28 0.000742303
129.29 0.000647825
129.3 0.000561755
129.31 0.000485933
129.32 0.000422202
129.33 0.000372382
129.34 0.000338673
129.35 0.000323757
129.36 0.000328095
129.37 0.000353131
129.38 0.00040015
129.39 0.000470244
129.4 0.000564286
129.41 0.0006829
129.42 0.000826434
129.43 0.000996509
129.44 0.00119195
129.45 0.00141128
129.46 0.00165344
129.47 0.001917
129.48 0.00220015
129.49 0.0025007
129.5 0.0028161
129.51 0.00314352
129.52 0.00348003
129.53 0.00382102
129.54 0.00416261
129.55 0.00450067
129.56 0.00483092
129.57 0.00514894
129.58 0.00545022
129.59 0.00573028
129.6 0.0059832
129.61 0.00620418
129.62 0.00639036
129.63 0.00653796
129.64 0.00664354
129.65 0.00670406
129.66 0.00671699
129.67 0.00668031
129.68 0.00659261
129.69 0.00644854
129.7 0.00625227
129.71 0.00600492
129.72 0.00570796
129.73 0.00536357
129.74 0.00497467
129.75 0.00454486
129.76 0.00407843
129.77 0.00357943
129.78 0.00305326
129.79 0.00250795
129.8 0.00195001
129.81 0.00138626
129.82 0.000823778
129.83 0.000269779
129.84 -0.000268495
129.85 -0.000783873
129.86 -0.00126672
129.87 -0.0017112
129.88 -0.0021118
129.89 -0.00246286
129.9 -0.00275934
129.91 -0.0029969
129.92 -0.00317198
129.93 -0.00328186
129.94 -0.00332361
129.95 -0.00329224
129.96 -0.00319331
129.97 -0.00302814
129.98 -0.002799
129.99 -0.00250912
130 -0.00216261
130.01 -0.00176446
130.02 -0.00132038
130.03 -0.000835006
130.04 -0.00031698
130.05 0.00022462
130.06 0.000781856
130.07 0.00134658
130.08 0.00191056
130.09 0.00246562
130.1 0.00300376
130.11 0.00351723
130.12 0.00399524
130.13 0.00443362
130.14 0.00482654
130.15 0.0051689
130.16 0.00545652
130.17 0.00568612
130.18 0.00585541
130.19 0.00596313
130.2 0.00600658
130.21 0.00598601
130.22 0.0059068
130.23 0.00577198
130.24 0.00558549
130.25 0.0053521
130.26 0.00507731
130.27 0.00476726
130.28 0.00442862
130.29 0.00406733
130.3 0.00369283
130.31 0.00331288
130.32 0.00293491
130.33 0.00256613
130.34 0.00221346
130.35 0.00188336
130.36 0.00158174
130.37 0.00131477
130.38 0.00108901
130.39 0.000905445
130.4 0.000766536
130.41 0.000673762
130.42 0.000627608
130.43 0.000627555
130.44 0.000672101
130.45 0.000758786
130.46 0.000886482
130.47 0.00104908
130.48 0.00124034
130.49 0.00145456
130.5 0.00168554
130.51 0.00192672
130.52 0.0021713
130.53 0.00241239
130.54 0.00264297
130.55 0.00285449
130.56 0.00304169
130.57 0.00319885
130.58 0.00332087
130.59 0.00340338
130.6 0.00344284
130.61 0.0034366
130.62 0.00338301
130.63 0.00327907
130.64 0.00312553
130.65 0.00292624
130.66 0.00268389
130.67 0.00240214
130.68 0.00208557
130.69 0.00173958
130.7 0.00137031
130.71 0.000984523
130.72 0.000589318
130.73 0.000193751
130.74 -0.00019429
130.75 -0.000566954
130.76 -0.000916525
130.77 -0.00123558
130.78 -0.00151714
130.79 -0.00175479
130.8 -0.00194102
130.81 -0.00206901
130.82 -0.00213815
130.83 -0.00214581
130.84 -0.00209046
130.85 -0.00197174
130.86 -0.00179045
130.87 -0.00154857
130.88 -0.0012492
130.89 -0.000893088
130.9 -0.000488913
130.91 -4.42258e-05
130.92 0.000433745
130.93 0.000937088
130.94 0.00145735
130.95 0.00198568
130.96 0.00251301
130.97 0.00302983
130.98 0.00352505
130.99 0.00399088
131 0.00441912
131.01 0.00480222
131.02 0.0051334
131.03 0.00540676
131.04 0.00561746
131.05 0.00576173
131.06 0.00583299
131.07 0.00583133
131.08 0.00575956
131.09 0.00561921
131.1 0.00541304
131.11 0.00514499
131.12 0.00482017
131.13 0.00444468
131.14 0.00402547
131.15 0.00356799
131.16 0.00308473
131.17 0.00258474
131.18 0.00207735
131.19 0.00157196
131.2 0.00107793
131.21 0.000604341
131.22 0.000159862
131.23 -0.000245548
131.24 -0.000603256
131.25 -0.000909043
131.26 -0.0011577
131.27 -0.00134516
131.28 -0.00146852
131.29 -0.00152617
131.3 -0.00151776
131.31 -0.00144423
131.32 -0.00130295
131.33 -0.00110215
131.34 -0.000847466
131.35 -0.000544785
131.36 -0.000200884
131.37 0.000176672
131.38 0.000579687
131.39 0.000999493
131.4 0.00142707
131.41 0.00185226
131.42 0.00226563
131.43 0.00265847
131.44 0.00302252
131.45 0.00335016
131.46 0.00363451
131.47 0.00386961
131.48 0.00405052
131.49 0.00416943
131.5 0.00422575
131.51 0.00422009
131.52 0.00415267
131.53 0.00402497
131.54 0.00383973
131.55 0.00360089
131.56 0.00331349
131.57 0.00298323
131.58 0.00261528
131.59 0.002221
131.6 0.00180885
131.61 0.0013877
131.62 0.00096661
131.63 0.000554707
131.64 0.000160969
131.65 -0.000205942
131.66 -0.000535714
131.67 -0.000820197
131.68 -0.00105451
131.69 -0.00123315
131.7 -0.00135172
131.71 -0.00140699
131.72 -0.001397
131.73 -0.00132106
131.74 -0.00117982
131.75 -0.000969861
131.76 -0.000700234
131.77 -0.000375975
131.78 -2.91388e-06
131.79 0.00041212
131.8 0.00086143
131.81 0.00133659
131.82 0.00182864
131.83 0.00232809
131.84 0.0028242
131.85 0.00330701
131.86 0.00376718
131.87 0.00419578
131.88 0.00458442
131.89 0.00492548
131.9 0.00521222
131.91 0.00543892
131.92 0.00559597
131.93 0.00568334
131.94 0.00570063
131.95 0.00564745
131.96 0.00552479
131.97 0.00533496
131.98 0.00508158
131.99 0.0047695
132 0.00440386
132.01 0.00398997
132.02 0.00353983
132.03 0.00306228
132.04 0.00256665
132.05 0.00206266
132.06 0.00156018
132.07 0.00106907
132.08 0.000598976
132.09 0.000161467
132.1 -0.000234531
132.11 -0.000582389
132.12 -0.000875272
132.13 -0.00110739
132.14 -0.00127413
132.15 -0.00137209
132.16 -0.0013992
132.17 -0.00135448
132.18 -0.00123252
132.19 -0.00104211
132.2 -0.00078679
132.21 -0.00047131
132.22 -0.000101524
132.23 0.000315721
132.24 0.000772727
132.25 0.00126109
132.26 0.00177242
132.27 0.00229634
132.28 0.00282225
132.29 0.00334074
132.3 0.00384259
132.31 0.00431904
132.32 0.00476188
132.33 0.00516365
132.34 0.00551775
132.35 0.00581382
132.36 0.00605089
132.37 0.00622656
132.38 0.00633904
132.39 0.00638779
132.4 0.00637354
132.41 0.00629822
132.42 0.00616495
132.43 0.00597665
132.44 0.00573728
132.45 0.0054567
132.46 0.00514188
132.47 0.00480037
132.48 0.00444009
132.49 0.00406916
132.5 0.00369577
132.51 0.00332794
132.52 0.00297481
132.53 0.0026438
132.54 0.00234098
132.55 0.00207203
132.56 0.00184168
132.57 0.00165368
132.58 0.00151069
132.59 0.00141419
132.6 0.00136508
132.61 0.00136559
132.62 0.00140958
132.63 0.00149373
132.64 0.00161367
132.65 0.00176418
132.66 0.00193919
132.67 0.00213202
132.68 0.00233546
132.69 0.00254171
132.7 0.00274208
132.71 0.00292878
132.72 0.00309436
132.73 0.00323179
132.74 0.00333456
132.75 0.0033969
132.76 0.00341389
132.77 0.00338158
132.78 0.00329223
132.79 0.0031487
132.8 0.00295102
132.81 0.00270022
132.82 0.0023986
132.83 0.00204968
132.84 0.00165813
132.85 0.00122971
132.86 0.000770377
132.87 0.000288211
132.88 -0.000206618
132.89 -0.000705153
132.9 -0.0011981
132.91 -0.00167604
132.92 -0.00212958
132.93 -0.00254957
132.94 -0.00292729
132.95 -0.00325029
132.96 -0.00351347
132.97 -0.00371169
132.98 -0.00383994
132.99 -0.00389445
133 -0.00387277
133.01 -0.00377386
133.02 -0.00359811
133.03 -0.00334592
133.04 -0.00301716
133.05 -0.00262239
133.06 -0.00216789
133.07 -0.00166112
133.08 -0.0011106
133.09 -0.000525764
133.1 8.32116e-05
133.11 0.000705608
133.12 0.0013298
133.13 0.00194322
133.14 0.00253474
133.15 0.0030936
133.16 0.00360957
133.17 0.00407318
133.18 0.00447587
133.19 0.0048102
133.2 0.00506958
133.21 0.00524204
133.22 0.00533136
133.23 0.00533609
133.24 0.00525635
133.25 0.00509389
133.26 0.00485199
133.27 0.00453549
133.28 0.00415064
133.29 0.00370275
133.3 0.00320147
133.31 0.00265984
133.32 0.00208865
133.33 0.00149926
133.34 0.000903426
133.35 0.000313063
133.36 -0.000259995
133.37 -0.000804203
133.38 -0.00130434
133.39 -0.00175219
133.4 -0.00213909
133.41 -0.00245704
133.42 -0.00269935
133.43 -0.00286076
133.44 -0.00293754
133.45 -0.00292753
133.46 -0.00282782
133.47 -0.00263662
133.48 -0.00236288
133.49 -0.00201133
133.5 -0.00158818
133.51 -0.00110099
133.52 -0.00055854
133.53 2.93626e-05
133.54 0.000652033
133.55 0.0012989
133.56 0.00195593
133.57 0.00261053
133.58 0.00325074
133.59 0.00386492
133.6 0.00444193
133.61 0.00497137
133.62 0.00544372
133.63 0.00584966
133.64 0.00617642
133.65 0.00642402
133.66 0.00658857
133.67 0.0066677
133.68 0.00666069
133.69 0.00656844
133.7 0.00639342
133.71 0.00613966
133.72 0.00580919
133.73 0.00541053
133.74 0.00495506
133.75 0.00445202
133.76 0.0039115
133.77 0.00334417
133.78 0.00276111
133.79 0.00217359
133.8 0.00159282
133.81 0.00103235
133.82 0.000501827
133.83 1.08254e-05
133.84 -0.000431951
133.85 -0.000818869
133.86 -0.00114351
133.87 -0.00140078
133.88 -0.00158703
133.89 -0.00169736
133.9 -0.00172966
133.91 -0.0016894
133.92 -0.00157927
133.93 -0.00140339
133.94 -0.00116719
133.95 -0.000877297
133.96 -0.000541413
133.97 -0.000168124
133.98 0.000234637
133.99 0.000654413
134 0.00108051
134.01 0.0015027
134.02 0.00191089
134.03 0.00229536
134.04 0.00264694
134.05 0.0029572
134.06 0.00321746
134.07 0.00341777
134.08 0.00355686
134.09 0.00363106
134.1 0.00363811
134.11 0.00357717
134.12 0.00344882
134.13 0.00325508
134.14 0.00299932
134.15 0.00268312
134.16 0.00231469
134.17 0.00190313
134.18 0.00145649
134.19 0.000983536
134.2 0.000493546
134.21 -3.8564e-06
134.22 -0.000498917
134.23 -0.000981828
134.24 -0.00144049
134.25 -0.00186732
134.26 -0.00225418
134.27 -0.00259383
134.28 -0.00288002
134.29 -0.00310764
134.3 -0.00327282
134.31 -0.00337301
134.32 -0.00340408
134.33 -0.00336613
134.34 -0.00326436
134.35 -0.00310203
134.36 -0.00288364
134.37 -0.00261487
134.38 -0.00230243
134.39 -0.00195394
134.4 -0.00157776
134.41 -0.00118201
134.42 -0.000778222
134.43 -0.000376037
134.44 1.51673e-05
134.45 0.000386297
134.46 0.000728735
134.47 0.00103453
134.48 0.00129656
134.49 0.00150707
134.5 0.00165866
134.51 0.00175117
134.52 0.00178249
134.53 0.00175187
134.54 0.00166002
134.55 0.00150902
134.56 0.00130233
134.57 0.00104473
134.58 0.000739624
134.59 0.000396915
134.6 2.59863e-05
134.61 -0.000364177
134.62 -0.000764025
134.63 -0.00116364
134.64 -0.00155295
134.65 -0.00192193
134.66 -0.00226025
134.67 -0.00255508
134.68 -0.00280052
134.69 -0.00298903
134.7 -0.00311415
134.71 -0.00317061
134.72 -0.00315451
134.73 -0.00306336
134.74 -0.00289619
134.75 -0.00264968
134.76 -0.00232732
134.77 -0.00193626
134.78 -0.00148198
134.79 -0.000971334
134.8 -0.00041245
134.81 0.000185447
134.82 0.000812177
134.83 0.0014568
134.84 0.00210729
134.85 0.00275025
134.86 0.00337371
134.87 0.00396589
134.88 0.00451537
134.89 0.00501136
134.9 0.00544391
134.91 0.00580405
134.92 0.00608074
134.93 0.00626529
134.94 0.00635776
134.95 0.00635517
134.96 0.00625622
134.97 0.00606131
134.98 0.00577255
134.99 0.00539369
135 0.00493013
135.01 0.00438344
135.02 0.00376753
135.03 0.00309358
135.04 0.00237242
135.05 0.00161572
135.06 0.000835781
135.07 4.52712e-05
135.08 -0.000742966
135.09 -0.00151554
135.1 -0.0022573
135.11 -0.00295771
135.12 -0.00360583
135.13 -0.00419173
135.14 -0.00470667
135.15 -0.00514325
135.16 -0.00549556
135.17 -0.00575924
135.18 -0.00592594
135.19 -0.0059974
135.2 -0.00597776
135.21 -0.00586981
135.22 -0.00567793
135.23 -0.00540804
135.24 -0.00506741
135.25 -0.00466459
135.26 -0.00420892
135.27 -0.00370855
135.28 -0.00317927
135.29 -0.00263275
135.3 -0.00208083
135.31 -0.00153529
135.32 -0.00100762
135.33 -0.000508777
135.34 -4.90159e-05
135.35 0.00035973
135.36 0.000708188
135.37 0.000992126
135.38 0.00120631
135.39 0.00134703
135.4 0.00141214
135.41 0.0014011
135.42 0.001315
135.43 0.00115651
135.44 0.000924467
135.45 0.000630426
135.46 0.000282246
135.47 -0.000111698
135.48 -0.000542063
135.49 -0.000998728
135.5 -0.001471
135.51 -0.00194781
135.52 -0.0024174
135.53 -0.0028668
135.54 -0.00328581
135.55 -0.00366432
135.56 -0.00399294
135.57 -0.00426329
135.58 -0.00446806
135.59 -0.00460126
135.6 -0.00465826
135.61 -0.00463025
135.62 -0.00451927
135.63 -0.00432767
135.64 -0.00405736
135.65 -0.00371182
135.66 -0.00329601
135.67 -0.00281626
135.68 -0.00228019
135.69 -0.00169599
135.7 -0.00107199
135.71 -0.000422516
135.72 0.000241276
135.73 0.000907895
135.74 0.00156575
135.75 0.00220335
135.76 0.00280953
135.77 0.00337365
135.78 0.00388247
135.79 0.00432675
135.8 0.00470096
135.81 0.0049987
135.82 0.00521492
135.83 0.005346
135.84 0.00538986
135.85 0.00534594
135.86 0.00521524
135.87 0.00499277
135.88 0.00469088
135.89 0.00431535
135.9 0.00387314
135.91 0.0033723
135.92 0.00282189
135.93 0.00223176
135.94 0.00161237
135.95 0.000974379
135.96 0.000330157
135.97 -0.000308212
135.98 -0.000929806
135.99 -0.00152412
136 -0.00208122
136.01 -0.00259196
136.02 -0.00304809
136.03 -0.00344241
136.04 -0.0037632
136.05 -0.0040096
136.06 -0.0041796
136.07 -0.00427141
136.08 -0.00428465
136.09 -0.00422026
136.1 -0.00408054
136.11 -0.00386903
136.12 -0.00358907
136.13 -0.00324422
136.14 -0.00284616
136.15 -0.00240264
136.16 -0.00192197
136.17 -0.00141298
136.18 -0.00088475
136.19 -0.000346519
136.2 0.00019252
136.21 0.0007223
136.22 0.00123352
136.23 0.00171846
136.24 0.00216976
136.25 0.00258084
136.26 0.00294596
136.27 0.00326034
136.28 0.00352016
136.29 0.00372223
136.3 0.00386003
136.31 0.00393815
136.32 0.00395714
136.33 0.00391852
136.34 0.0038247
136.35 0.00367888
136.36 0.00348502
136.37 0.00324766
136.38 0.00297036
136.39 0.00265929
136.4 0.00232203
136.41 0.00196447
136.42 0.00159253
136.43 0.00121199
136.44 0.000828444
136.45 0.000447163
136.46 7.30286e-05
136.47 -0.000288206
136.48 -0.000633311
136.49 -0.000959207
136.5 -0.00126332
136.51 -0.0015437
136.52 -0.001799
136.53 -0.00202848
136.54 -0.00223195
136.55 -0.00240899
136.56 -0.00255976
136.57 -0.00268719
136.58 -0.00279293
136.59 -0.00287884
136.6 -0.00294699
136.61 -0.00299952
136.62 -0.00303861
136.63 -0.00306637
136.64 -0.00308428
136.65 -0.00309474
136.66 -0.00309949
136.67 -0.00309979
136.68 -0.00309658
136.69 -0.00309045
136.7 -0.00308169
136.71 -0.00307025
136.72 -0.00305572
136.73 -0.00303712
136.74 -0.00301376
136.75 -0.00298453
136.76 -0.00294816
136.77 -0.00290334
136.78 -0.00284874
136.79 -0.00278309
136.8 -0.00270524
136.81 -0.00261345
136.82 -0.00250719
136.83 -0.00238662
136.84 -0.00225179
136.85 -0.00210311
136.86 -0.00194141
136.87 -0.00176797
136.88 -0.0015845
136.89 -0.00139313
136.9 -0.00119617
136.91 -0.000997324
136.92 -0.000799907
136.93 -0.000607476
136.94 -0.000423777
136.95 -0.000252665
136.96 -9.80209e-05
136.97 3.63328e-05
136.98 0.000145633
136.99 0.000225645
137 0.000274702
137.01 0.000290233
137.02 0.000270177
137.03 0.000213058
137.04 0.000118041
137.05 -1.50217e-05
137.06 -0.000185555
137.07 -0.000394931
137.08 -0.000638475
137.09 -0.000912657
137.1 -0.00121381
137.11 -0.0015376
137.12 -0.00187912
137.13 -0.00223294
137.14 -0.00259322
137.15 -0.00295362
137.16 -0.00330674
137.17 -0.00364614
137.18 -0.0039654
137.19 -0.00425828
137.2 -0.00451886
137.21 -0.00474165
137.22 -0.00492173
137.23 -0.00505482
137.24 -0.00513405
137.25 -0.00515823
137.26 -0.00512745
137.27 -0.0050412
137.28 -0.00489997
137.29 -0.00470533
137.3 -0.00445983
137.31 -0.00416705
137.32 -0.00383122
137.33 -0.00345547
137.34 -0.00304981
137.35 -0.00262131
137.36 -0.00217759
137.37 -0.00172668
137.38 -0.0012769
137.39 -0.000836676
137.4 -0.000414398
137.41 -1.99121e-05
137.42 0.00033802
137.43 0.000653474
137.44 0.000919948
137.45 0.00113176
137.46 0.00128419
137.47 0.00137354
137.48 0.00139726
137.49 0.00135399
137.5 0.00123786
137.51 0.00105572
137.52 0.000810735
137.53 0.000506848
137.54 0.000149149
137.55 -0.000256179
137.56 -0.000701965
137.57 -0.00118017
137.58 -0.00168246
137.59 -0.00219876
137.6 -0.00271785
137.61 -0.00322968
137.62 -0.00372422
137.63 -0.00419161
137.64 -0.00462232
137.65 -0.00500739
137.66 -0.00533851
137.67 -0.00560341
137.68 -0.00579819
137.69 -0.00591927
137.7 -0.00596291
137.71 -0.00592672
137.72 -0.0058097
137.73 -0.0056123
137.74 -0.00533637
137.75 -0.00498402
137.76 -0.0045562
137.77 -0.00406494
137.78 -0.00351764
137.79 -0.00292272
137.8 -0.00228952
137.81 -0.0016281
137.82 -0.000949093
137.83 -0.000263533
137.84 0.000416458
137.85 0.00107844
137.86 0.00171173
137.87 0.00230583
137.88 0.0028509
137.89 0.00333788
137.9 0.00375868
137.91 0.00410629
137.92 0.00437485
137.93 0.0045519
137.94 0.00464219
137.95 0.00464446
137.96 0.0045589
137.97 0.0043872
137.98 0.00413247
137.99 0.00379918
138 0.00339309
138.01 0.00291884
138.02 0.00238476
138.03 0.00180346
138.04 0.00118474
138.05 0.000538948
138.06 -0.000123236
138.07 -0.000790968
138.08 -0.00145344
138.09 -0.00210005
138.1 -0.00271773
138.11 -0.0032978
138.12 -0.00383195
138.13 -0.0043124
138.14 -0.00473242
138.15 -0.0050864
138.16 -0.00536997
138.17 -0.00558003
138.18 -0.00571287
138.19 -0.00576476
138.2 -0.00574208
138.21 -0.00564722
138.22 -0.00548374
138.23 -0.00525632
138.24 -0.0049706
138.25 -0.00463311
138.26 -0.00425109
138.27 -0.00383054
138.28 -0.00338194
138.29 -0.00291489
138.3 -0.00243798
138.31 -0.0019597
138.32 -0.00148826
138.33 -0.00103147
138.34 -0.000596588
138.35 -0.000190521
138.36 0.000177833
138.37 0.000506272
138.38 0.000791037
138.39 0.00102937
138.4 0.00121953
138.41 0.00136082
138.42 0.00145353
138.43 0.00149893
138.44 0.00149715
138.45 0.00145184
138.46 0.00136897
138.47 0.00125307
138.48 0.00110917
138.49 0.000942638
138.5 0.000759109
138.51 0.000564298
138.52 0.000363892
138.53 0.00016387
138.54 -3.01557e-05
138.55 -0.000213479
138.56 -0.00038193
138.57 -0.000531963
138.58 -0.000660728
138.59 -0.000766129
138.6 -0.000846859
138.61 -0.000901598
138.62 -0.000930105
138.63 -0.000935219
138.64 -0.000918984
138.65 -0.000884133
138.66 -0.000834016
138.67 -0.000772516
138.68 -0.000703949
138.69 -0.000632962
138.7 -0.000564956
138.71 -0.000505255
138.72 -0.000458687
138.73 -0.000429964
138.74 -0.000423496
138.75 -0.000443289
138.76 -0.000492839
138.77 -0.000575043
138.78 -0.000692768
138.79 -0.000849713
138.8 -0.00104368
138.81 -0.00127434
138.82 -0.00154054
138.83 -0.00184031
138.84 -0.00217088
138.85 -0.00252873
138.86 -0.00290966
138.87 -0.00330959
138.88 -0.0037221
138.89 -0.00414069
138.9 -0.00455924
138.91 -0.00497144
138.92 -0.00537095
138.93 -0.0057515
138.94 -0.00610705
138.95 -0.00643177
138.96 -0.00671664
138.97 -0.00695996
138.98 -0.00715777
138.99 -0.00730681
139 -0.00740465
139.01 -0.00744968
139.02 -0.00744116
139.03 -0.00737924
139.04 -0.00726285
139.05 -0.00709366
139.06 -0.0068773
139.07 -0.00661741
139.08 -0.00631829
139.09 -0.00598482
139.1 -0.00562237
139.11 -0.00523667
139.12 -0.00483374
139.13 -0.00441933
139.14 -0.00400091
139.15 -0.00358465
139.16 -0.00317633
139.17 -0.00278136
139.18 -0.00240471
139.19 -0.00205079
139.2 -0.0017234
139.21 -0.00142646
139.22 -0.00116386
139.23 -0.000934936
139.24 -0.000740297
139.25 -0.000579761
139.26 -0.000452385
139.27 -0.000356508
139.28 -0.000289803
139.29 -0.000249345
139.3 -0.000232933
139.31 -0.000235411
139.32 -0.000251902
139.33 -0.000278007
139.34 -0.000309264
139.35 -0.000341269
139.36 -0.000369787
139.37 -0.000390865
139.38 -0.000400784
139.39 -0.000395165
139.4 -0.000372606
139.41 -0.000331391
139.42 -0.000270511
139.43 -0.000189705
139.44 -8.94754e-05
139.45 2.89057e-05
139.46 0.000163415
139.47 0.000311799
139.48 0.000470062
139.49 0.000633483
139.5 0.000797431
139.51 0.000956878
139.52 0.00110652
139.53 0.00124088
139.54 0.00135445
139.55 0.00144181
139.56 0.00149453
139.57 0.00151008
139.58 0.00148441
139.59 0.00141391
139.6 0.00129573
139.61 0.00112781
139.62 0.000909033
139.63 0.000639215
139.64 0.000317537
139.65 -5.50365e-05
139.66 -0.000472351
139.67 -0.000930255
139.68 -0.00142363
139.69 -0.00194648
139.7 -0.00249196
139.71 -0.00305253
139.72 -0.00362006
139.73 -0.00418515
139.74 -0.00473805
139.75 -0.00526972
139.76 -0.00577113
139.77 -0.00623342
139.78 -0.00664813
139.79 -0.00700732
139.8 -0.00730377
139.81 -0.00752964
139.82 -0.0076748
139.83 -0.00774049
139.84 -0.00772386
139.85 -0.00762335
139.86 -0.00743876
139.87 -0.00717127
139.88 -0.00682344
139.89 -0.0063992
139.9 -0.00590009
139.91 -0.00533512
139.92 -0.00471484
139.93 -0.00404827
139.94 -0.00334532
139.95 -0.00261667
139.96 -0.00187357
139.97 -0.00112768
139.98 -0.000390949
139.99 0.000321745
140 0.000999761
140.01 0.00163187
140.02 0.00220745
140.03 0.00271669
140.04 0.00315071
140.05 0.00350178
140.06 0.00376339
140.07 0.00392623
140.08 0.00398546
140.09 0.00394426
140.1 0.00380249
140.11 0.00356156
140.12 0.00322451
140.13 0.00279591
140.14 0.00228179
140.15 0.00168961
140.16 0.0010232
140.17 0.000298301
140.18 -0.000473196
140.19 -0.00127949
140.2 -0.00210819
140.21 -0.00294655
140.22 -0.00378162
140.23 -0.00460051
140.24 -0.00538939
140.25 -0.00613307
140.26 -0.00682218
140.27 -0.00744617
140.28 -0.00799551
140.29 -0.00846183
140.3 -0.0088381
140.31 -0.00911866
140.32 -0.00929937
140.33 -0.00937076
140.34 -0.0093359
140.35 -0.00919862
140.36 -0.00896147
140.37 -0.0086285
140.38 -0.00820518
140.39 -0.00769837
140.4 -0.00711612
140.41 -0.00646695
140.42 -0.00575803
140.43 -0.00500575
140.44 -0.00422166
140.45 -0.00341764
140.46 -0.00260577
140.47 -0.00179807
140.48 -0.00100634
140.49 -0.000242001
140.5 0.000481642
140.51 0.00115363
140.52 0.00176673
140.53 0.00231302
140.54 0.00278575
140.55 0.00317944
140.56 0.0034899
140.57 0.00371431
140.58 0.00385125
140.59 0.00389289
140.6 0.0038484
140.61 0.00372109
140.62 0.00351512
140.63 0.0032358
140.64 0.00288944
140.65 0.00248331
140.66 0.00202542
140.67 0.00152326
140.68 0.000986278
140.69 0.000426482
140.7 -0.000146493
140.71 -0.000723046
140.72 -0.00129376
140.73 -0.00184957
140.74 -0.00238186
140.75 -0.00288263
140.76 -0.00334122
140.77 -0.00375281
140.78 -0.00411285
140.79 -0.00441703
140.8 -0.00466205
140.81 -0.00484569
140.82 -0.00496682
140.83 -0.00502535
140.84 -0.00502111
140.85 -0.00495309
140.86 -0.00482904
140.87 -0.00465296
140.88 -0.00442962
140.89 -0.00416444
140.9 -0.00386344
140.91 -0.00353307
140.92 -0.00318014
140.93 -0.00281115
140.94 -0.00243442
140.95 -0.00205753
140.96 -0.00168737
140.97 -0.00133057
140.98 -0.000993357
140.99 -0.000681524
141 -0.000400295
141.01 -0.000154444
141.02 4.84094e-05
141.03 0.000208487
141.04 0.000323525
141.05 0.000392039
141.06 0.000413334
141.07 0.000387485
141.08 0.000315327
141.09 0.000198414
141.1 3.72611e-05
141.11 -0.00016512
141.12 -0.000403025
141.13 -0.000672419
141.14 -0.000968859
141.15 -0.00128757
141.16 -0.00162355
141.17 -0.00197159
141.18 -0.00232644
141.19 -0.0026825
141.2 -0.00303402
141.21 -0.00337598
141.22 -0.00370362
141.23 -0.00401244
141.24 -0.00429831
141.25 -0.00455751
141.26 -0.00478673
141.27 -0.00498215
141.28 -0.00513986
141.29 -0.00526036
141.3 -0.00534246
141.31 -0.00538546
141.32 -0.00538919
141.33 -0.00535395
141.34 -0.00528052
141.35 -0.00517011
141.36 -0.0050221
141.37 -0.00484017
141.38 -0.00462766
141.39 -0.00438726
141.4 -0.00412187
141.41 -0.00383459
141.42 -0.00352868
141.43 -0.00320748
141.44 -0.00287431
141.45 -0.00253236
141.46 -0.00218595
141.47 -0.00183843
141.48 -0.00149302
141.49 -0.00115285
141.5 -0.000820853
141.51 -0.000499823
141.52 -0.00019234
141.53 9.82822e-05
141.54 0.000369809
141.55 0.000621074
141.56 0.00085046
141.57 0.0010566
141.58 0.00123836
141.59 0.00139485
141.6 0.00152545
141.61 0.00162973
141.62 0.00170509
141.63 0.00175396
141.64 0.0017767
141.65 0.00177381
141.66 0.00174596
141.67 0.00169402
141.68 0.00161898
141.69 0.00152203
141.7 0.00140377
141.71 0.00126539
141.72 0.00110967
141.73 0.00093827
141.74 0.000752935
141.75 0.000555493
141.76 0.000347825
141.77 0.000131858
141.78 -9.04521e-05
141.79 -0.000317308
141.8 -0.000546292
141.81 -0.000775366
141.82 -0.0010026
141.83 -0.0012261
141.84 -0.00144403
141.85 -0.00165465
141.86 -0.00185628
141.87 -0.00204709
141.88 -0.00222484
141.89 -0.00238903
141.9 -0.00253848
141.91 -0.00267218
141.92 -0.00278927
141.93 -0.00288905
141.94 -0.00297101
141.95 -0.00303479
141.96 -0.00307911
141.97 -0.00310448
141.98 -0.00311175
141.99 -0.00310132
142 -0.00307373
142.01 -0.0030297
142.02 -0.0029701
142.03 -0.00289591
142.04 -0.00280818
142.05 -0.00270724
142.06 -0.00259561
142.07 -0.00247468
142.08 -0.00234591
142.09 -0.00221077
142.1 -0.00207076
142.11 -0.00192738
142.12 -0.00178208
142.13 -0.00163634
142.14 -0.00149169
142.15 -0.00134942
142.16 -0.00121072
142.17 -0.00107667
142.18 -0.000948259
142.19 -0.000826327
142.2 -0.000711612
142.21 -0.00060472
142.22 -0.000506857
142.23 -0.000417777
142.24 -0.000337593
142.25 -0.000266394
142.26 -0.00020416
142.27 -0.000150775
142.28 -0.000106037
142.29 -6.967e-05
142.3 -4.15598e-05
142.31 -2.15553e-05
142.32 -8.71489e-06
142.33 -2.60613e-06
142.34 -2.79689e-06
142.35 -8.86864e-06
142.36 -2.04288e-05
142.37 -3.71216e-05
142.38 -5.86384e-05
142.39 -8.50244e-05
142.4 -0.000115882
142.41 -0.000150983
142.42 -0.000190283
142.43 -0.000233806
142.44 -0.000281644
142.45 -0.000333945
142.46 -0.000390915
142.47 -0.000452876
142.48 -0.000520498
142.49 -0.000593696
142.5 -0.000672795
142.51 -0.000758114
142.52 -0.000849955
142.53 -0.000948585
142.54 -0.00105422
142.55 -0.00116703
142.56 -0.00128747
142.57 -0.00141543
142.58 -0.0015505
142.59 -0.00169242
142.6 -0.00184085
142.61 -0.00199529
142.62 -0.00215513
142.63 -0.00231964
142.64 -0.00248796
142.65 -0.00265925
142.66 -0.00283204
142.67 -0.00300511
142.68 -0.0031771
142.69 -0.00334663
142.7 -0.00351219
142.71 -0.00367228
142.72 -0.00382534
142.73 -0.00396941
142.74 -0.00410256
142.75 -0.00422376
142.76 -0.00433156
142.77 -0.00442458
142.78 -0.00450152
142.79 -0.00456122
142.8 -0.00460263
142.81 -0.00462488
142.82 -0.00462567
142.83 -0.0046056
142.84 -0.00456473
142.85 -0.00450294
142.86 -0.00442031
142.87 -0.00431714
142.88 -0.00419392
142.89 -0.00405136
142.9 -0.00388996
142.91 -0.00371005
142.92 -0.00351425
142.93 -0.003304
142.94 -0.00308089
142.95 -0.00284663
142.96 -0.00260301
142.97 -0.00235194
142.98 -0.00209535
142.99 -0.00183517
143 -0.0015737
143.01 -0.00131306
143.02 -0.00105519
143.03 -0.000801997
143.04 -0.000555288
143.05 -0.000316784
143.06 -8.80895e-05
143.07 0.000129248
143.08 0.000332753
143.09 0.000522317
143.1 0.000696981
143.11 0.000855966
143.12 0.000998672
143.13 0.00112468
143.14 0.00123376
143.15 0.00132584
143.16 0.00140028
143.17 0.00145737
143.18 0.00149839
143.19 0.00152394
143.2 0.00153475
143.21 0.00153166
143.22 0.00151561
143.23 0.00148758
143.24 0.00144865
143.25 0.00139918
143.26 0.00134113
143.27 0.00127571
143.28 0.00120404
143.29 0.00112719
143.3 0.00104617
143.31 0.000961955
143.32 0.00087543
143.33 0.000787379
143.34 0.000698565
143.35 0.000609675
143.36 0.000521207
143.37 0.000433559
143.38 0.00034703
143.39 0.000261826
143.4 0.00017806
143.41 9.57663e-05
143.42 1.49991e-05
143.43 -6.44239e-05
143.44 -0.000142697
143.45 -0.000220009
143.46 -0.00029657
143.47 -0.00037259
143.48 -0.000448269
143.49 -0.00052378
143.5 -0.000599258
143.51 -0.000674788
143.52 -0.00075037
143.53 -0.000825925
143.54 -0.000901285
143.55 -0.000976195
143.56 -0.0010503
143.57 -0.00112314
143.58 -0.00119418
143.59 -0.0012626
143.6 -0.00132759
143.61 -0.00138844
143.62 -0.00144426
143.63 -0.0014941
143.64 -0.00153699
143.65 -0.00157194
143.66 -0.00159796
143.67 -0.0016141
143.68 -0.00161834
143.69 -0.00161078
143.7 -0.00159071
143.71 -0.00155751
143.72 -0.0015107
143.73 -0.00144997
143.74 -0.00137518
143.75 -0.00128639
143.76 -0.00118333
143.77 -0.00106633
143.78 -0.000936891
143.79 -0.000795979
143.8 -0.000644772
143.81 -0.000484663
143.82 -0.000317247
143.83 -0.000144303
143.84 3.22188e-05
143.85 0.000210164
143.86 0.000387001
143.87 0.000560389
143.88 0.000727959
143.89 0.000887332
143.9 0.00103615
143.91 0.00117212
143.92 0.00129304
143.93 0.00139642
143.94 0.00147928
143.95 0.00154124
143.96 0.00158096
143.97 0.00159736
143.98 0.0015897
143.99 0.00155753
144 0.0015008
144.01 0.00141978
144.02 0.00131374
144.03 0.00118455
144.04 0.00103447
144.05 0.000865299
144.06 0.000679175
144.07 0.000478533
144.08 0.000266074
144.09 4.47228e-05
144.1 -0.000182424
144.11 -0.000411987
144.12 -0.000640159
144.13 -0.000863571
144.14 -0.00107889
144.15 -0.00128288
144.16 -0.00147243
144.17 -0.00164467
144.18 -0.00179694
144.19 -0.00192578
144.2 -0.00202895
144.21 -0.00210603
144.22 -0.00215594
144.23 -0.00217803
144.24 -0.00217214
144.25 -0.00213859
144.26 -0.00207816
144.27 -0.0019921
144.28 -0.00188024
144.29 -0.00174683
144.3 -0.00159466
144.31 -0.0014267
144.32 -0.00124616
144.33 -0.00105653
144.34 -0.000861431
144.35 -0.000664608
144.36 -0.000470021
144.37 -0.000282019
144.38 -0.000104029
144.39 6.05558e-05
144.4 0.000208611
144.41 0.000337341
144.42 0.000444341
144.43 0.000527648
144.44 0.000585786
144.45 0.000615934
144.46 0.000618955
144.47 0.000595787
144.48 0.000547313
144.49 0.000474986
144.5 0.00038081
144.51 0.000267306
144.52 0.000137476
144.53 -5.38426e-06
144.54 -0.000157621
144.55 -0.000314102
144.56 -0.000470467
144.57 -0.000622238
144.58 -0.000764911
144.59 -0.00089404
144.6 -0.00100533
144.61 -0.00109474
144.62 -0.00115696
144.63 -0.00118874
144.64 -0.00118846
144.65 -0.00115401
144.66 -0.00108397
144.67 -0.000977574
144.68 -0.000834795
144.69 -0.000656356
144.7 -0.000443739
144.71 -0.000196444
144.72 7.91982e-05
144.73 0.000379358
144.74 0.000699578
144.75 0.00103483
144.76 0.0013796
144.77 0.00172797
144.78 0.00207373
144.79 0.00240983
144.8 0.00272875
144.81 0.00302463
144.82 0.00329124
144.83 0.00352267
144.84 0.00371348
144.85 0.00385872
144.86 0.00395415
144.87 0.00399625
144.88 0.00397779
144.89 0.00390051
144.9 0.00376476
144.91 0.00357097
144.92 0.00332065
144.93 0.0030163
144.94 0.00266148
144.95 0.0022607
144.96 0.0018186
144.97 0.00134065
144.98 0.000836886
144.99 0.000315142
145 -0.000216242
145.01 -0.000748561
145.02 -0.00127289
145.03 -0.00178024
145.04 -0.00226169
145.05 -0.00270586
145.06 -0.00310474
145.07 -0.00345188
145.08 -0.00374045
145.09 -0.00396447
145.1 -0.00411897
145.11 -0.00420005
145.12 -0.00420496
145.13 -0.00413157
145.14 -0.0039737
145.15 -0.00373946
145.16 -0.00343158
145.17 -0.00305402
145.18 -0.002612
145.19 -0.00211189
145.2 -0.00156108
145.21 -0.000967956
145.22 -0.000340587
145.23 0.000309826
145.24 0.000971361
145.25 0.00163332
145.26 0.00228489
145.27 0.00291537
145.28 0.00351433
145.29 0.00407176
145.3 0.00457833
145.31 0.00501963
145.32 0.00539232
145.33 0.00569064
145.34 0.0059096
145.35 0.00604557
145.36 0.00609629
145.37 0.00606101
145.38 0.00594039
145.39 0.00573407
145.4 0.00544381
145.41 0.00508008
145.42 0.00464945
145.43 0.00415961
145.44 0.00361932
145.45 0.00303819
145.46 0.0024265
145.47 0.00179509
145.48 0.0011553
145.49 0.000519939
145.5 -9.97009e-05
145.51 -0.000692853
145.52 -0.00124929
145.53 -0.0017595
145.54 -0.00221489
145.55 -0.00260793
145.56 -0.00293104
145.57 -0.00317429
145.58 -0.00333986
145.59 -0.00342598
145.6 -0.00343244
145.61 -0.00336052
145.62 -0.00321303
145.63 -0.00299423
145.64 -0.00270977
145.65 -0.00236374
145.66 -0.00196629
145.67 -0.0015289
145.68 -0.00106156
145.69 -0.000574832
145.7 -7.96355e-05
145.71 0.000412951
145.72 0.000891915
145.73 0.00134649
145.74 0.00176232
145.75 0.00213251
145.76 0.00244865
145.77 0.00270343
145.78 0.00289081
145.79 0.00300612
145.8 0.00304619
145.81 0.00300939
145.82 0.00289266
145.83 0.00269695
145.84 0.00242999
145.85 0.00209684
145.86 0.00170403
145.87 0.00125939
145.88 0.000771943
145.89 0.000251711
145.9 -0.000290448
145.91 -0.00084293
145.92 -0.00139204
145.93 -0.00192559
145.94 -0.00243167
145.95 -0.00289871
145.96 -0.00331575
145.97 -0.0036726
145.98 -0.00396013
145.99 -0.0041683
146 -0.00428618
146.01 -0.00431458
146.02 -0.00425046
146.03 -0.00409253
146.04 -0.00384128
146.05 -0.00349899
146.06 -0.00306969
146.07 -0.00255916
146.08 -0.00197061
146.09 -0.00131662
146.1 -0.000609919
146.11 0.000137831
146.12 0.000914063
146.13 0.00170552
146.14 0.00249847
146.15 0.00327901
146.16 0.00403289
146.17 0.00474221
146.18 0.0053966
146.19 0.00598412
146.2 0.00649395
146.21 0.00691655
146.22 0.00724392
146.23 0.0074697
146.24 0.00758931
146.25 0.00759473
146.26 0.00748572
146.27 0.00726898
146.28 0.0069482
146.29 0.00652895
146.3 0.00601862
146.31 0.0054263
146.32 0.00476261
146.33 0.00403949
146.34 0.00326721
146.35 0.00246484
146.36 0.00164743
146.37 0.000830006
146.38 2.76703e-05
146.39 -0.000744739
146.4 -0.0014729
146.41 -0.00214325
146.42 -0.00274057
146.43 -0.00325015
146.44 -0.00366702
146.45 -0.0039835
146.46 -0.00419376
146.47 -0.00429394
146.48 -0.00428221
146.49 -0.00415881
146.5 -0.00392606
146.51 -0.00358118
146.52 -0.00313671
146.53 -0.00260353
146.54 -0.00199187
146.55 -0.00131341
146.56 -0.000581101
146.57 0.000191122
146.58 0.000988556
146.59 0.00179591
146.6 0.00259585
146.61 0.00337259
146.62 0.00411135
146.63 0.0047981
146.64 0.00541978
146.65 0.0059646
146.66 0.00642217
146.67 0.00678378
146.68 0.00703638
146.69 0.00717667
146.7 0.00720613
146.71 0.0071244
146.72 0.00693324
146.73 0.00663647
146.74 0.00623991
146.75 0.00575126
146.76 0.00517982
146.77 0.00453127
146.78 0.00382575
146.79 0.00307693
146.8 0.00229929
146.81 0.00150781
146.82 0.000717717
146.83 -5.58226e-05
146.84 -0.000797984
146.85 -0.0014921
146.86 -0.00212264
146.87 -0.00268026
146.88 -0.00315454
146.89 -0.00353667
146.9 -0.00381962
146.91 -0.00399829
146.92 -0.00406959
146.93 -0.0040325
146.94 -0.00387964
146.95 -0.00362196
146.96 -0.00326649
146.97 -0.00282066
146.98 -0.00229361
146.99 -0.00169602
147 -0.00103989
147.01 -0.000338331
147.02 0.000395149
147.03 0.0011451
147.04 0.00189469
147.05 0.00262918
147.06 0.0033342
147.07 0.00399602
147.08 0.00460181
147.09 0.00513988
147.1 0.00559994
147.11 0.00596712
147.12 0.00623707
147.13 0.00640771
147.14 0.0064764
147.15 0.00644251
147.16 0.0063075
147.17 0.00607483
147.18 0.00574992
147.19 0.00533926
147.2 0.00484725
147.21 0.00429177
147.22 0.00368491
147.23 0.00303977
147.24 0.00237023
147.25 0.00169065
147.26 0.00101562
147.27 0.00035965
147.28 -0.000260759
147.29 -0.000830646
147.3 -0.00133922
147.31 -0.00177532
147.32 -0.00212924
147.33 -0.00239287
147.34 -0.0025599
147.35 -0.00262591
147.36 -0.00258849
147.37 -0.00243818
147.38 -0.00218584
147.39 -0.00183624
147.4 -0.00139549
147.41 -0.000871557
147.42 -0.000274056
147.43 0.000385904
147.44 0.00109594
147.45 0.00184338
147.46 0.00261284
147.47 0.00338747
147.48 0.00415232
147.49 0.00489262
147.5 0.005594
147.51 0.00624281
147.52 0.00682636
147.53 0.00733314
147.54 0.0077461
147.55 0.00806077
147.56 0.00827282
147.57 0.008378
147.58 0.00837407
147.59 0.00826088
147.6 0.00804034
147.61 0.0077164
147.62 0.00729332
147.63 0.0067747
147.64 0.00617771
147.65 0.00551361
147.66 0.00479493
147.67 0.00403518
147.68 0.00324862
147.69 0.00244996
147.7 0.00165411
147.71 0.000877737
147.72 0.000136469
147.73 -0.000556876
147.74 -0.00118977
147.75 -0.00175094
147.76 -0.00223055
147.77 -0.0026204
147.78 -0.00291412
147.79 -0.00310691
147.8 -0.00318711
147.81 -0.00316405
147.82 -0.00303983
147.83 -0.00281852
147.84 -0.00250611
147.85 -0.00211037
147.86 -0.00164069
147.87 -0.00110791
147.88 -0.000522478
147.89 0.000101217
147.9 0.000746744
147.91 0.00139989
147.92 0.00204636
147.93 0.00267208
147.94 0.00326347
147.95 0.00380771
147.96 0.00429302
147.97 0.00470245
147.98 0.00503122
147.99 0.00527329
148 0.0054236
148.01 0.00547904
148.02 0.00543857
148.03 0.00530318
148.04 0.00507596
148.05 0.00475984
148.06 0.00435958
148.07 0.00389016
148.08 0.00336235
148.09 0.00278826
148.1 0.00218113
148.11 0.0015551
148.12 0.000924873
148.13 0.000305484
148.14 -0.000285312
148.15 -0.000832243
148.16 -0.00132213
148.17 -0.00174196
148.18 -0.00207995
148.19 -0.00232579
148.2 -0.00247087
148.21 -0.00250843
148.22 -0.0024325
148.23 -0.00223224
148.24 -0.00191731
148.25 -0.00149024
148.26 -0.000955836
148.27 -0.000321109
148.28 0.000404809
148.29 0.00121082
148.3 0.00208401
148.31 0.00301175
148.32 0.0039757
148.33 0.00495653
148.34 0.00593644
148.35 0.00689724
148.36 0.00782067
148.37 0.00868875
148.38 0.00948407
148.39 0.0101901
148.4 0.0107809
148.41 0.0112508
148.42 0.0115885
148.43 0.0117846
148.44 0.0118316
148.45 0.0117247
148.46 0.0114613
148.47 0.0110415
148.48 0.0104627
148.49 0.00972752
148.5 0.00885332
148.51 0.00785075
148.52 0.00673265
148.53 0.00551388
148.54 0.00421105
148.55 0.0028423
148.56 0.00142701
148.57 -1.49274e-05
148.58 -0.00145907
148.59 -0.00288378
148.6 -0.0042681
148.61 -0.00559155
148.62 -0.00683449
148.63 -0.00797843
148.64 -0.00900629
148.65 -0.00989988
148.66 -0.0106366
148.67 -0.0112156
148.68 -0.0116288
148.69 -0.0118703
148.7 -0.0119367
148.71 -0.0118276
148.72 -0.0115448
148.73 -0.011093
148.74 -0.0104702
148.75 -0.00969113
148.76 -0.00877358
148.77 -0.00773165
148.78 -0.00658113
148.79 -0.00533929
148.8 -0.00402456
148.81 -0.00265626
148.82 -0.00125427
148.83 0.000160457
148.84 0.0015651
148.85 0.00294001
148.86 0.00426628
148.87 0.005526
148.88 0.00670252
148.89 0.00778068
148.9 0.00874704
148.91 0.00958423
148.92 0.0102807
148.93 0.0108361
148.94 0.0112455
148.95 0.0115067
148.96 0.0116193
148.97 0.0115855
148.98 0.0114092
148.99 0.0110966
149 0.0106458
149.01 0.0100768
149.02 0.00940248
149.03 0.00863568
149.04 0.0077901
149.05 0.00688028
149.06 0.00592128
149.07 0.00492845
149.08 0.00391715
149.09 0.00290416
149.1 0.00190521
149.11 0.0009343
149.12 4.53253e-06
149.13 -0.000872026
149.14 -0.0016845
149.15 -0.00242335
149.16 -0.00308041
149.17 -0.00364275
149.18 -0.00410848
149.19 -0.00447683
149.2 -0.00474616
149.21 -0.00491631
149.22 -0.0049886
149.23 -0.00496568
149.24 -0.00485146
149.25 -0.00465004
149.26 -0.00436259
149.27 -0.00400328
149.28 -0.00357989
149.29 -0.00310077
149.3 -0.00257462
149.31 -0.00201034
149.32 -0.00141692
149.33 -0.000803255
149.34 -0.000177877
149.35 0.000449784
149.36 0.0010715
149.37 0.00168007
149.38 0.00226892
149.39 0.00283217
149.4 0.00336472
149.41 0.00386221
149.42 0.00432108
149.43 0.00473456
149.44 0.00510423
149.45 0.0054291
149.46 0.00570868
149.47 0.00594314
149.48 0.00613318
149.49 0.00627996
149.5 0.00638509
149.51 0.00644913
149.52 0.0064737
149.53 0.00646349
149.54 0.00642098
149.55 0.00634868
149.56 0.00624905
149.57 0.00612447
149.58 0.0059772
149.59 0.00580933
149.6 0.0056215
149.61 0.00541659
149.62 0.0051964
149.63 0.00496217
149.64 0.00471496
149.65 0.00445564
149.66 0.00418496
149.67 0.00390353
149.68 0.00361174
149.69 0.00330963
149.7 0.0029985
149.71 0.00267896
149.72 0.00235171
149.73 0.00201759
149.74 0.00167762
149.75 0.00133303
149.76 0.000985248
149.77 0.00063599
149.78 0.000287481
149.79 -5.80008e-05
149.8 -0.00039798
149.81 -0.000729763
149.82 -0.00105046
149.83 -0.00135701
149.84 -0.00164624
149.85 -0.00191477
149.86 -0.00215698
149.87 -0.00237149
149.88 -0.00255516
149.89 -0.00270498
149.9 -0.00281819
149.91 -0.00289226
149.92 -0.00292503
149.93 -0.00291468
149.94 -0.00285783
149.95 -0.00275327
149.96 -0.00260297
149.97 -0.0024072
149.98 -0.00216677
149.99 -0.00188308
150 -0.00155805
150.01 -0.00119419
150.02 -0.000794515
150.03 -0.000360176
150.04 0.000102057
150.05 0.000587359
150.06 0.0010909
150.07 0.00160755
150.08 0.002132
150.09 0.00265874
150.1 0.00318223
150.11 0.00369649
150.12 0.0041949
150.13 0.00467282
150.14 0.00512522
150.15 0.00554736
150.16 0.00593492
150.17 0.00628397
150.18 0.00659109
150.19 0.00685338
150.2 0.00706518
150.21 0.00722662
150.22 0.00733797
150.23 0.00739886
150.24 0.00740955
150.25 0.00737091
150.26 0.00728437
150.27 0.00715195
150.28 0.00697564
150.29 0.00675608
150.3 0.0065003
150.31 0.00621218
150.32 0.00589594
150.33 0.00555603
150.34 0.00519707
150.35 0.00482379
150.36 0.00444098
150.37 0.00405341
150.38 0.00366638
150.39 0.00328457
150.4 0.00291226
150.41 0.0025535
150.42 0.002212
150.43 0.00189114
150.44 0.00159393
150.45 0.00132295
150.46 0.00108314
150.47 0.000873725
150.48 0.000695782
150.49 0.000550008
150.5 0.000436644
150.51 0.000355491
150.52 0.000305923
150.53 0.00028691
150.54 0.00029805
150.55 0.000337884
150.56 0.000402595
150.57 0.000489756
150.58 0.000596696
150.59 0.00072055
150.6 0.000858289
150.61 0.00100676
150.62 0.00116274
150.63 0.00132302
150.64 0.00148376
150.65 0.00164168
150.66 0.00179362
150.67 0.00193655
150.68 0.00206758
150.69 0.002184
150.7 0.00228328
150.71 0.00236269
150.72 0.00241886
150.73 0.00245154
150.74 0.0024593
150.75 0.00244101
150.76 0.00239586
150.77 0.00232336
150.78 0.00222333
150.79 0.00209593
150.8 0.00194006
150.81 0.0017574
150.82 0.00155006
150.83 0.00131955
150.84 0.00106768
150.85 0.000796554
150.86 0.000508528
150.87 0.000206222
150.88 -0.000107569
150.89 -0.000430172
150.9 -0.000757351
150.91 -0.0010857
150.92 -0.00141171
150.93 -0.00173178
150.94 -0.00204228
150.95 -0.00233958
150.96 -0.00262006
150.97 -0.0028791
150.98 -0.00311278
150.99 -0.00331889
151 -0.00349438
151.01 -0.00363647
151.02 -0.00374263
151.03 -0.00381065
151.04 -0.00383864
151.05 -0.00382509
151.06 -0.00376522
151.07 -0.00366155
151.08 -0.00351431
151.09 -0.0033238
151.1 -0.00309077
151.11 -0.00281642
151.12 -0.0025024
151.13 -0.00215081
151.14 -0.00176322
151.15 -0.00134184
151.16 -0.000892288
151.17 -0.000418318
151.18 7.60355e-05
151.19 0.000586475
151.2 0.00110849
151.21 0.0016374
151.22 0.00216841
151.23 0.00269616
151.24 0.00321539
151.25 0.00372142
151.26 0.00420959
151.27 0.00467543
151.28 0.00511468
151.29 0.00552336
151.3 0.00589783
151.31 0.0062342
151.32 0.00652667
151.33 0.00677592
151.34 0.00698007
151.35 0.00713768
151.36 0.00724784
151.37 0.00731011
151.38 0.00732454
151.39 0.00729167
151.4 0.00721009
151.41 0.0070821
151.42 0.00691153
151.43 0.00670074
151.44 0.00645242
151.45 0.00616954
151.46 0.00585537
151.47 0.00551335
151.48 0.00514713
151.49 0.00475889
151.5 0.00435465
151.51 0.00393826
151.52 0.00351353
151.53 0.00308419
151.54 0.00265386
151.55 0.00222601
151.56 0.00180392
151.57 0.00139114
151.58 0.000991043
151.59 0.000605662
151.6 0.00023728
151.61 -0.000112081
151.62 -0.000440673
151.63 -0.000747012
151.64 -0.00102987
151.65 -0.00128829
151.66 -0.00151952
151.67 -0.00172457
151.68 -0.00190361
151.69 -0.00205653
151.7 -0.00218343
151.71 -0.0022845
151.72 -0.00236008
151.73 -0.0024106
151.74 -0.00243603
151.75 -0.00243585
151.76 -0.00241247
151.77 -0.00236656
151.78 -0.00229886
151.79 -0.00221013
151.8 -0.00210113
151.81 -0.00197268
151.82 -0.00182562
151.83 -0.00165979
151.84 -0.00147675
151.85 -0.00127805
151.86 -0.00106477
151.87 -0.000838017
151.88 -0.000599025
151.89 -0.000349102
151.9 -8.96654e-05
151.91 0.000177803
151.92 0.000452003
151.93 0.000730475
151.94 0.00101133
151.95 0.00129256
151.96 0.00157208
151.97 0.0018477
151.98 0.00211718
151.99 0.00237823
152 0.00262792
152.01 0.00286361
152.02 0.00308359
152.03 0.00328565
152.04 0.00346771
152.05 0.00362783
152.06 0.00376423
152.07 0.00387537
152.08 0.00395991
152.09 0.00401437
152.1 0.00404014
152.11 0.00403708
152.12 0.00400521
152.13 0.00394488
152.14 0.0038568
152.15 0.00374207
152.16 0.00360213
152.17 0.00343812
152.18 0.00325176
152.19 0.00304703
152.2 0.00282671
152.21 0.00259379
152.22 0.00235147
152.23 0.00210308
152.24 0.00185206
152.25 0.00160186
152.26 0.00135647
152.27 0.00111939
152.28 0.000893715
152.29 0.000682431
152.3 0.000488285
152.31 0.000313716
152.32 0.000160821
152.33 3.13116e-05
152.34 -7.31261e-05
152.35 -0.000149962
152.36 -0.000200881
152.37 -0.000226069
152.38 -0.000226176
152.39 -0.000202308
152.4 -0.000156012
152.41 -8.92445e-05
152.42 -4.33605e-06
152.43 9.67268e-05
152.44 0.000210376
152.45 0.000332787
152.46 0.000460589
152.47 0.000590324
152.48 0.000718514
152.49 0.00084173
152.5 0.000956659
152.51 0.00106017
152.52 0.00114777
152.53 0.0012181
152.54 0.00126901
152.55 0.0012988
152.56 0.0013062
152.57 0.00129042
152.58 0.00125119
152.59 0.00118873
152.6 0.00110296
152.61 0.000994982
152.62 0.000867859
152.63 0.000723862
152.64 0.000565656
152.65 0.000396253
152.66 0.000218955
152.67 3.72935e-05
152.68 -0.000145045
152.69 -0.000323743
152.7 -0.000494863
152.71 -0.000654776
152.72 -0.000799962
152.73 -0.000927135
152.74 -0.00103332
152.75 -0.00111589
152.76 -0.00117268
152.77 -0.00120129
152.78 -0.00119909
152.79 -0.00116754
152.8 -0.00110671
152.81 -0.00101721
152.82 -0.000900252
152.83 -0.000757604
152.84 -0.00059155
152.85 -0.000404871
152.86 -0.000199926
152.87 1.86767e-05
152.88 0.000246409
152.89 0.000479052
152.9 0.000712237
152.91 0.000941527
152.92 0.00116251
152.93 0.00137086
152.94 0.00156228
152.95 0.00173094
152.96 0.00187491
152.97 0.0019912
152.98 0.0020773
152.99 0.00213124
153 0.00215163
153.01 0.00213771
153.02 0.00208933
153.03 0.00200544
153.04 0.0018874
153.05 0.0017387
153.06 0.00156179
153.07 0.00135965
153.08 0.00113575
153.09 0.000893947
153.1 0.000638457
153.11 0.000373743
153.12 0.000104456
153.13 -0.000163909
153.14 -0.000426621
153.15 -0.000679098
153.16 -0.000916968
153.17 -0.00113615
153.18 -0.00133293
153.19 -0.00150402
153.2 -0.0016457
153.21 -0.00175459
153.22 -0.00183104
153.23 -0.00187422
153.24 -0.00188394
153.25 -0.00186066
153.26 -0.00180548
153.27 -0.00172012
153.28 -0.00160688
153.29 -0.00146702
153.3 -0.00130546
153.31 -0.00112655
153.32 -0.000934368
153.33 -0.000733227
153.34 -0.000527562
153.35 -0.000321849
153.36 -0.000120513
153.37 7.19575e-05
153.38 0.000250333
153.39 0.000411705
153.4 0.000552851
153.41 0.00067103
153.42 0.000764044
153.43 0.000830282
153.44 0.000868755
153.45 0.000879117
153.46 0.000860183
153.47 0.000813584
153.48 0.000742129
153.49 0.000648138
153.5 0.000534471
153.51 0.000404472
153.52 0.000261897
153.53 0.000110837
153.54 -4.43645e-05
153.55 -0.000198739
153.56 -0.000347407
153.57 -0.000485864
153.58 -0.000609769
153.59 -0.00071503
153.6 -0.000797899
153.61 -0.000855055
153.62 -0.000883681
153.63 -0.000880226
153.64 -0.00084249
153.65 -0.000771378
153.66 -0.000666809
153.67 -0.000529423
153.68 -0.000360576
153.69 -0.000162329
153.7 6.25894e-05
153.71 0.000310819
153.72 0.000579613
153.73 0.0008628
153.74 0.00115515
153.75 0.00145142
153.76 0.00174614
153.77 0.00203374
153.78 0.00230863
153.79 0.00256535
153.8 0.00279792
153.81 0.00299959
153.82 0.00316763
153.83 0.00329812
153.84 0.00338776
153.85 0.00343392
153.86 0.0034347
153.87 0.00338896
153.88 0.00329637
153.89 0.00315452
153.9 0.00296651
153.91 0.00273603
153.92 0.00246608
153.93 0.00216038
153.94 0.00182329
153.95 0.00145972
153.96 0.00107506
153.97 0.000674981
153.98 0.000265455
153.99 -0.000146068
154 -0.000553333
154.01 -0.000950179
154.02 -0.00133064
154.03 -0.00168907
154.04 -0.00202022
154.05 -0.00231934
154.06 -0.00258036
154.07 -0.00279952
154.08 -0.00297592
154.09 -0.00310777
154.1 -0.00319406
154.11 -0.00323462
154.12 -0.00323011
154.13 -0.00318198
154.14 -0.00309245
154.15 -0.00296142
154.16 -0.00279602
154.17 -0.00260083
154.18 -0.00238067
154.19 -0.00214073
154.2 -0.00188648
154.21 -0.00162359
154.22 -0.00135778
154.23 -0.00109501
154.24 -0.000841677
154.25 -0.000602757
154.26 -0.000383059
154.27 -0.000186924
154.28 -1.81386e-05
154.29 0.000120132
154.3 0.000225399
154.31 0.000295891
154.32 0.000327981
154.33 0.000323289
154.34 0.00028329
154.35 0.000209392
154.36 0.000103706
154.37 -3.1009e-05
154.38 -0.000191407
154.39 -0.000373624
154.4 -0.00057358
154.41 -0.00078689
154.42 -0.00100733
154.43 -0.00122986
154.44 -0.00144943
154.45 -0.0016611
154.46 -0.00186009
154.47 -0.00204194
154.48 -0.00220256
154.49 -0.00233674
154.5 -0.00244158
154.51 -0.00251568
154.52 -0.00255738
154.53 -0.00256568
154.54 -0.00254028
154.55 -0.00248162
154.56 -0.00239081
154.57 -0.0022696
154.58 -0.00211815
154.59 -0.00194238
154.6 -0.00174593
154.61 -0.00153283
154.62 -0.00130747
154.63 -0.00107448
154.64 -0.00083863
154.65 -0.000604741
154.66 -0.000378055
154.67 -0.000163867
154.68 3.39238e-05
154.69 0.000211392
154.7 0.000365056
154.71 0.000491946
154.72 0.000589674
154.73 0.000656476
154.74 0.000691252
154.75 0.000690997
154.76 0.000658297
154.77 0.000594736
154.78 0.000502113
154.79 0.000382852
154.8 0.000239954
154.81 7.69342e-05
154.82 -0.00010225
154.83 -0.000293458
154.84 -0.000491874
154.85 -0.000691936
154.86 -0.0008888
154.87 -0.00107768
154.88 -0.00125393
154.89 -0.00141316
154.9 -0.00155132
154.91 -0.0016648
154.92 -0.00174851
154.93 -0.0018007
154.94 -0.00182047
154.95 -0.00180676
154.96 -0.00175923
154.97 -0.00167828
154.98 -0.00156501
154.99 -0.00142126
155 -0.00124932
155.01 -0.00105086
155.02 -0.000832085
155.03 -0.000597375
155.04 -0.000351515
155.05 -9.96183e-05
155.06 0.000152969
155.07 0.000400773
155.08 0.000638295
155.09 0.000859073
155.1 0.00105732
155.11 0.00122893
155.12 0.00136946
155.13 0.00147498
155.14 0.00154213
155.15 0.00156822
155.16 0.00155126
155.17 0.00149001
155.18 0.00138008
155.19 0.00122573
155.2 0.00102857
155.21 0.000790739
155.22 0.000515159
155.23 0.000205456
155.24 -0.000134082
155.25 -0.000498573
155.26 -0.000883075
155.27 -0.0012814
155.28 -0.00168621
155.29 -0.00209108
155.3 -0.00248952
155.31 -0.00287505
155.32 -0.0032413
155.33 -0.00358216
155.34 -0.0038918
155.35 -0.00416183
155.36 -0.00438889
155.37 -0.00456965
155.38 -0.0047007
155.39 -0.00477932
155.4 -0.0048036
155.41 -0.00477243
155.42 -0.00468549
155.43 -0.00454233
155.44 -0.00434137
155.45 -0.0040891
155.46 -0.00378855
155.47 -0.00344341
155.48 -0.003058
155.49 -0.00263718
155.5 -0.00218629
155.51 -0.00171103
155.52 -0.00121672
155.53 -0.000710689
155.54 -0.000199895
155.55 0.000309366
155.56 0.000810905
155.57 0.00129873
155.58 0.00176712
155.59 0.00221071
155.6 0.00262446
155.61 0.00300049
155.62 0.0033378
155.63 0.00363317
155.64 0.00388399
155.65 0.00408829
155.66 0.0042447
155.67 0.00435251
155.68 0.00441161
155.69 0.00442049
155.7 0.00437994
155.71 0.00429416
155.72 0.00416531
155.73 0.00399597
155.74 0.00378908
155.75 0.00354789
155.76 0.00327589
155.77 0.00297675
155.78 0.0026527
155.79 0.00230959
155.8 0.00195158
155.81 0.00158253
155.82 0.00120617
155.83 0.000826119
155.84 0.000445823
155.85 6.8528e-05
155.86 -0.000302504
155.87 -0.000663835
155.88 -0.00101343
155.89 -0.00134908
155.9 -0.00166882
155.91 -0.00197096
155.92 -0.00225403
155.93 -0.00251683
155.94 -0.00275834
155.95 -0.00297628
155.96 -0.00317084
155.97 -0.00334225
155.98 -0.00349027
155.99 -0.00361477
156 -0.00371578
156.01 -0.00379339
156.02 -0.00384783
156.03 -0.00387913
156.04 -0.00388608
156.05 -0.00387107
156.06 -0.00383465
156.07 -0.00377744
156.08 -0.00370017
156.09 -0.00360366
156.1 -0.0034888
156.11 -0.00335662
156.12 -0.00320749
156.13 -0.00304297
156.14 -0.00286517
156.15 -0.00267565
156.16 -0.00247611
156.17 -0.00226837
156.18 -0.00205442
156.19 -0.00183635
156.2 -0.00161636
156.21 -0.00139704
156.22 -0.00118095
156.23 -0.00097055
156.24 -0.000768341
156.25 -0.000576808
156.26 -0.000398397
156.27 -0.000235481
156.28 -9.03185e-05
156.29 3.42183e-05
156.3 0.00013547
156.31 0.00021301
156.32 0.000265484
156.33 0.000291845
156.34 0.000291382
156.35 0.000263747
156.36 0.000208974
156.37 0.000127493
156.38 1.83099e-05
156.39 -0.000115752
156.4 -0.000272442
156.41 -0.000449651
156.42 -0.000644915
156.43 -0.000855444
156.44 -0.00107816
156.45 -0.00130975
156.46 -0.00154674
156.47 -0.00178516
156.48 -0.00202093
156.49 -0.00225032
156.5 -0.0024697
156.51 -0.00267555
156.52 -0.00286455
156.53 -0.00303369
156.54 -0.00318025
156.55 -0.00330034
156.56 -0.0033925
156.57 -0.00345635
156.58 -0.00349114
156.59 -0.00349668
156.6 -0.00347334
156.61 -0.00342205
156.62 -0.00334431
156.63 -0.00324211
156.64 -0.00311642
156.65 -0.00297257
156.66 -0.00281415
156.67 -0.0026451
156.68 -0.00246966
156.69 -0.00229228
156.7 -0.00211753
156.71 -0.00195005
156.72 -0.00179514
156.73 -0.00165793
156.74 -0.00154194
156.75 -0.00145101
156.76 -0.00138855
156.77 -0.00135749
156.78 -0.00136018
156.79 -0.00139836
156.8 -0.0014731
156.81 -0.00158774
156.82 -0.00173911
156.83 -0.00192545
156.84 -0.00214465
156.85 -0.00239389
156.86 -0.00266962
156.87 -0.00296765
156.88 -0.00328316
156.89 -0.00361097
156.9 -0.00394485
156.91 -0.00427779
156.92 -0.00460333
156.93 -0.00491489
156.94 -0.00520586
156.95 -0.00546974
156.96 -0.00570024
156.97 -0.00589143
156.98 -0.00603443
156.99 -0.00612564
157 -0.00616216
157.01 -0.00614062
157.02 -0.00605848
157.03 -0.00591409
157.04 -0.00570676
157.05 -0.00543676
157.06 -0.00510466
157.07 -0.00470889
157.08 -0.00425798
157.09 -0.00375636
157.1 -0.0032093
157.11 -0.00262293
157.12 -0.00200408
157.13 -0.00136025
157.14 -0.000699439
157.15 -3.0101e-05
157.16 0.000637868
157.17 0.00129526
157.18 0.0019332
157.19 0.00254298
157.2 0.00311614
157.21 0.00364468
157.22 0.00412109
157.23 0.00453855
157.24 0.00488462
157.25 0.00515948
157.26 0.00535935
157.27 0.00548123
157.28 0.00552318
157.29 0.00548438
157.3 0.00536511
157.31 0.00516676
157.32 0.00488922
157.33 0.0045349
157.34 0.00411302
157.35 0.00362924
157.36 0.00309003
157.37 0.00250257
157.38 0.00187463
157.39 0.00121447
157.4 0.000530712
157.41 -0.000168253
157.42 -0.0008718
157.43 -0.00157083
157.44 -0.00225672
157.45 -0.00292118
157.46 -0.00355641
157.47 -0.00415514
157.48 -0.00471079
157.49 -0.00521644
157.5 -0.00566374
157.51 -0.00605251
157.52 -0.00637982
157.53 -0.00664369
157.54 -0.00684316
157.55 -0.00697821
157.56 -0.00704977
157.57 -0.0070597
157.58 -0.00700741
157.59 -0.00689837
157.6 -0.006739
157.61 -0.00653427
157.62 -0.00628968
157.63 -0.0060111
157.64 -0.00570471
157.65 -0.00537689
157.66 -0.00503403
157.67 -0.00468242
157.68 -0.00432951
157.69 -0.00398123
157.7 -0.00364315
157.71 -0.00332041
157.72 -0.00301759
157.73 -0.00273872
157.74 -0.00248719
157.75 -0.00226711
157.76 -0.00208087
157.77 -0.00192805
157.78 -0.00180909
157.79 -0.00172371
157.8 -0.00167097
157.81 -0.00164931
157.82 -0.00165659
157.83 -0.00169017
157.84 -0.0017486
157.85 -0.00182633
157.86 -0.00191931
157.87 -0.0020235
157.88 -0.00213477
157.89 -0.00224895
157.9 -0.00236194
157.91 -0.00246977
157.92 -0.0025683
157.93 -0.0026532
157.94 -0.00272204
157.95 -0.00277214
157.96 -0.00280129
157.97 -0.00280773
157.98 -0.00279024
157.99 -0.00274809
158 -0.00268107
158.01 -0.00258789
158.02 -0.00247053
158.03 -0.00233104
158.04 -0.00217126
158.05 -0.00199341
158.06 -0.00180007
158.07 -0.0015941
158.08 -0.00137861
158.09 -0.00115685
158.1 -0.000932409
158.11 -0.000709213
158.12 -0.000490716
158.13 -0.000280295
158.14 -8.11948e-05
158.15 0.000103524
158.16 0.000271027
158.17 0.000418753
158.18 0.000543187
158.19 0.00064245
158.2 0.000716007
158.21 0.000762762
158.22 0.000782004
158.23 0.000773406
158.24 0.000737022
158.25 0.00067327
158.26 0.000582922
158.27 0.000464864
158.28 0.000322933
158.29 0.000158927
158.3 -2.51915e-05
158.31 -0.000227266
158.32 -0.000444981
158.33 -0.0006759
158.34 -0.000917499
158.35 -0.0011674
158.36 -0.00142283
158.37 -0.00168075
158.38 -0.00193867
158.39 -0.00219415
158.4 -0.00244484
158.41 -0.00268854
158.42 -0.00292314
158.43 -0.00314671
158.44 -0.00335635
158.45 -0.00355105
158.46 -0.00372959
158.47 -0.00389072
158.48 -0.00403329
158.49 -0.00415635
158.5 -0.00425907
158.51 -0.00434075
158.52 -0.00440036
158.53 -0.00443629
158.54 -0.00444982
158.55 -0.00444077
158.56 -0.00440904
158.57 -0.00435464
158.58 -0.00427767
158.59 -0.00417835
158.6 -0.00405695
158.61 -0.00391259
158.62 -0.00374643
158.63 -0.00355983
158.64 -0.00335354
158.65 -0.00312844
158.66 -0.00288552
158.67 -0.00262594
158.68 -0.00235097
158.69 -0.00206199
158.7 -0.00175974
158.71 -0.0014472
158.72 -0.00112632
158.73 -0.000799198
158.74 -0.000468057
158.75 -0.00013527
158.76 0.000196672
158.77 0.000525172
158.78 0.000847142
158.79 0.00115945
158.8 0.00145962
158.81 0.0017449
158.82 0.00201252
158.83 0.00225982
158.84 0.00248424
158.85 0.00268333
158.86 0.00285487
158.87 0.00299416
158.88 0.00310152
158.89 0.00317582
158.9 0.00321597
158.91 0.0032212
158.92 0.00319113
158.93 0.00312576
158.94 0.00302551
158.95 0.00289021
158.96 0.00272009
158.97 0.00251908
158.98 0.00228926
158.99 0.00203309
159 0.00175336
159.01 0.00145318
159.02 0.00113589
159.03 0.000805082
159.04 0.000464122
159.05 0.000117731
159.06 -0.000229896
159.07 -0.000574806
159.08 -0.000913111
159.09 -0.00124104
159.1 -0.001555
159.11 -0.00185163
159.12 -0.00212753
159.13 -0.00237818
159.14 -0.00260297
159.15 -0.00280007
159.16 -0.00296807
159.17 -0.00310606
159.18 -0.0032136
159.19 -0.00329075
159.2 -0.00333807
159.21 -0.00335514
159.22 -0.00334406
159.23 -0.00330805
159.24 -0.00324953
159.25 -0.00317128
159.26 -0.00307639
159.27 -0.00296818
159.28 -0.00285015
159.29 -0.00272594
159.3 -0.00259935
159.31 -0.00247456
159.32 -0.00235516
159.33 -0.00224454
159.34 -0.00214589
159.35 -0.00206211
159.36 -0.00199575
159.37 -0.00194901
159.38 -0.00192447
159.39 -0.00192394
159.4 -0.00194686
159.41 -0.00199341
159.42 -0.00206322
159.43 -0.00215542
159.44 -0.00226864
159.45 -0.00240104
159.46 -0.00255032
159.47 -0.00271462
159.48 -0.0028897
159.49 -0.00307188
159.5 -0.00325749
159.51 -0.00344272
159.52 -0.00362366
159.53 -0.00379637
159.54 -0.00395698
159.55 -0.0041013
159.56 -0.00422444
159.57 -0.00432439
159.58 -0.0043983
159.59 -0.00444371
159.6 -0.00445863
159.61 -0.0044416
159.62 -0.00439165
159.63 -0.0043084
159.64 -0.00419007
159.65 -0.00403856
159.66 -0.00385647
159.67 -0.00364585
159.68 -0.0034093
159.69 -0.00314992
159.7 -0.00287125
159.71 -0.00257723
159.72 -0.0022721
159.73 -0.00196034
159.74 -0.00164763
159.75 -0.00133883
159.76 -0.00103883
159.77 -0.000752413
159.78 -0.000484254
159.79 -0.00023878
159.8 -2.01155e-05
159.81 0.000166418
159.82 0.00031708
159.83 0.00043069
159.84 0.000505131
159.85 0.000538888
159.86 0.000531075
159.87 0.000481456
159.88 0.000390452
159.89 0.000259137
159.9 8.61238e-05
159.91 -0.000122996
159.92 -0.000364842
159.93 -0.000635852
159.94 -0.000932
159.95 -0.00124886
159.96 -0.00158167
159.97 -0.00192542
159.98 -0.00227493
159.99 -0.00262433
160 -0.00296801
160.01 -0.00330083
160.02 -0.0036178
160.03 -0.0039142
160.04 -0.00418566
160.05 -0.00442823
160.06 -0.00463839
160.07 -0.00481054
160.08 -0.00494374
160.09 -0.00503721
160.1 -0.00508995
160.11 -0.0051016
160.12 -0.00507245
160.13 -0.00500341
160.14 -0.00489604
160.15 -0.00475193
160.16 -0.00457194
160.17 -0.00436215
160.18 -0.00412626
160.19 -0.00386827
160.2 -0.00359248
160.21 -0.00330338
160.22 -0.00300559
160.23 -0.00270375
160.24 -0.00240274
160.25 -0.00210755
160.26 -0.00182236
160.27 -0.00155108
160.28 -0.0012973
160.29 -0.00106416
160.3 -0.00085435
160.31 -0.000670068
160.32 -0.000512959
160.33 -0.000386822
160.34 -0.000289486
160.35 -0.000220758
160.36 -0.000179908
160.37 -0.000165677
160.38 -0.000176309
160.39 -0.000209595
160.4 -0.000262923
160.41 -0.000333868
160.42 -0.000418998
160.43 -0.000513899
160.44 -0.000614968
160.45 -0.000718559
160.46 -0.000821059
160.47 -0.000918965
160.48 -0.00100895
160.49 -0.00108796
160.5 -0.00115194
160.51 -0.00119923
160.52 -0.00122818
160.53 -0.00123743
160.54 -0.00122608
160.55 -0.00119379
160.56 -0.00114073
160.57 -0.00106761
160.58 -0.000975259
160.59 -0.000864831
160.6 -0.000739943
160.61 -0.000603295
160.62 -0.000457942
160.63 -0.000307236
160.64 -0.000154755
160.65 -4.23523e-06
160.66 0.00014051
160.67 0.00027482
160.68 0.000394862
160.69 0.000497427
160.7 0.000579244
160.71 0.000637372
160.72 0.00066926
160.73 0.000672814
160.74 0.000646446
160.75 0.000588873
160.76 0.000497169
160.77 0.000374329
160.78 0.000221262
160.79 3.94949e-05
160.8 -0.000168852
160.81 -0.000401085
160.82 -0.00065398
160.83 -0.000923826
160.84 -0.00120687
160.85 -0.00149801
160.86 -0.00179182
160.87 -0.00208332
160.88 -0.0023674
160.89 -0.00263898
160.9 -0.00289307
160.91 -0.00312487
160.92 -0.00332984
160.93 -0.00350083
160.94 -0.00363632
160.95 -0.00373351
160.96 -0.00378996
160.97 -0.00380388
160.98 -0.0037742
160.99 -0.00370057
161 -0.0035834
161.01 -0.00342259
161.02 -0.00321911
161.03 -0.00297843
161.04 -0.00270405
161.05 -0.00240013
161.06 -0.00207136
161.07 -0.00172296
161.08 -0.00136055
161.09 -0.000990078
161.1 -0.000618036
161.11 -0.000251458
161.12 0.00010334
161.13 0.000440193
161.14 0.000753168
161.15 0.00103667
161.16 0.00128554
161.17 0.00149515
161.18 0.00166073
161.19 0.00177578
161.2 0.00184136
161.21 0.00185592
161.22 0.00181875
161.23 0.00173
161.24 0.00159073
161.25 0.00140284
161.26 0.00116908
161.27 0.000890898
161.28 0.000573907
161.29 0.00022486
161.3 -0.000150549
161.31 -0.000546145
161.32 -0.00095538
161.33 -0.00137144
161.34 -0.00178735
161.35 -0.00219613
161.36 -0.00258889
161.37 -0.00295982
161.38 -0.00330263
161.39 -0.00361153
161.4 -0.00388128
161.41 -0.00410731
161.42 -0.0042858
161.43 -0.00441374
161.44 -0.00448682
161.45 -0.00450299
161.46 -0.00446506
161.47 -0.00437388
161.48 -0.00423124
161.49 -0.00403983
161.5 -0.00380318
161.51 -0.00352561
161.52 -0.00321216
161.53 -0.00286659
161.54 -0.00249769
161.55 -0.00211258
161.56 -0.00171822
161.57 -0.00132169
161.58 -0.000930108
161.59 -0.000550456
161.6 -0.000189491
161.61 0.000145636
161.62 0.000447
161.63 0.00071126
161.64 0.000933964
161.65 0.00111145
161.66 0.00124092
161.67 0.00132049
161.68 0.00134923
161.69 0.00132718
161.7 0.0012523
161.71 0.00112858
161.72 0.00096065
161.73 0.000752486
161.74 0.00050885
161.75 0.000235212
161.76 -6.23505e-05
161.77 -0.00037726
161.78 -0.000702582
161.79 -0.00103061
161.8 -0.00135321
161.81 -0.00166309
161.82 -0.00195313
161.83 -0.00221654
161.84 -0.00244696
161.85 -0.00263859
161.86 -0.0027863
161.87 -0.00288323
161.88 -0.00292561
161.89 -0.00291337
161.9 -0.0028451
161.91 -0.00272047
161.92 -0.00254015
161.93 -0.00230582
161.94 -0.00202019
161.95 -0.00168692
161.96 -0.00130727
161.97 -0.000890694
161.98 -0.000443754
161.99 2.66666e-05
162 0.000513206
162.01 0.00100814
162.02 0.00150354
162.03 0.00199136
162.04 0.00246287
162.05 0.0029087
162.06 0.00332254
162.07 0.00369754
162.08 0.00402744
162.09 0.00430672
162.1 0.00453067
162.11 0.00469546
162.12 0.00479826
162.13 0.00483256
162.14 0.00480082
162.15 0.00470497
162.16 0.00454659
162.17 0.00432822
162.18 0.0040534
162.19 0.00372655
162.2 0.00335294
162.21 0.00293796
162.22 0.00248688
162.23 0.00201001
162.24 0.00151485
162.25 0.00100916
162.26 0.000500735
162.27 -2.67711e-06
162.28 -0.000493536
162.29 -0.000964627
162.3 -0.00140733
162.31 -0.00181529
162.32 -0.00218421
162.33 -0.0025095
162.34 -0.00278746
162.35 -0.00301525
162.36 -0.00319101
162.37 -0.00331382
162.38 -0.00338365
162.39 -0.00339693
162.4 -0.00336069
162.41 -0.00327788
162.42 -0.00315226
162.43 -0.00298824
162.44 -0.00279085
162.45 -0.00256561
162.46 -0.0023184
162.47 -0.002055
162.48 -0.00178234
162.49 -0.00150748
162.5 -0.00123653
162.51 -0.000975336
162.52 -0.000729343
162.53 -0.000503524
162.54 -0.000302268
162.55 -0.000129307
162.56 9.65752e-06
162.57 0.000114395
162.58 0.000184137
162.59 0.000218504
162.6 0.000217946
162.61 0.000183728
162.62 0.000117888
162.63 2.3193e-05
162.64 -9.74681e-05
162.65 -0.00024052
162.66 -0.000399644
162.67 -0.00056988
162.68 -0.000746016
162.69 -0.000922702
162.7 -0.00109456
162.71 -0.00125632
162.72 -0.0014029
162.73 -0.00152797
162.74 -0.00162749
162.75 -0.0016984
162.76 -0.00173762
162.77 -0.0017428
162.78 -0.00171231
162.79 -0.00164529
162.8 -0.00154171
162.81 -0.00140199
162.82 -0.00122538
162.83 -0.00101741
162.84 -0.000781333
162.85 -0.000521029
162.86 -0.000240979
162.87 5.3844e-05
162.88 0.000358067
162.89 0.000666022
162.9 0.000971451
162.91 0.00126769
162.92 0.00154904
162.93 0.00180986
162.94 0.00204482
162.95 0.00224902
162.96 0.00241806
162.97 0.00254816
162.98 0.00263623
162.99 0.00267584
163 0.00266914
163.01 0.00261589
163.02 0.00251646
163.03 0.00237205
163.04 0.00218473
163.05 0.00195735
163.06 0.00169356
163.07 0.00139675
163.08 0.00107176
163.09 0.00072608
163.1 0.000365666
163.11 -3.23413e-06
163.12 -0.000374199
163.13 -0.000740754
163.14 -0.00109649
163.15 -0.00143518
163.16 -0.0017488
163.17 -0.00203254
163.18 -0.00228203
163.19 -0.00249301
163.2 -0.00266195
163.21 -0.00278604
163.22 -0.0028633
163.23 -0.00289261
163.24 -0.00287282
163.25 -0.00280189
163.26 -0.00268516
163.27 -0.00252504
163.28 -0.00232475
163.29 -0.00208815
163.3 -0.00181976
163.31 -0.00152459
163.32 -0.0012081
163.33 -0.000875541
163.34 -0.000533948
163.35 -0.000189978
163.36 0.000150304
163.37 0.000480988
163.38 0.000796421
163.39 0.00109131
163.4 0.00136083
163.41 0.0016006
163.42 0.00180366
163.43 0.00196996
163.44 0.0020974
163.45 0.00218462
163.46 0.00223103
163.47 0.00223683
163.48 0.00220296
163.49 0.00213106
163.5 0.00202212
163.51 0.00187917
163.52 0.00170769
163.53 0.00151176
163.54 0.00129581
163.55 0.00106451
163.56 0.000822749
163.57 0.000575444
163.58 0.000327499
163.59 8.43975e-05
163.6 -0.000149219
163.61 -0.000369254
163.62 -0.000571955
163.63 -0.000754043
163.64 -0.000912764
163.65 -0.00104594
163.66 -0.00115197
163.67 -0.00122917
163.68 -0.00127601
163.69 -0.00129485
163.7 -0.00128669
163.71 -0.00125305
163.72 -0.00119597
163.73 -0.00111794
163.74 -0.00102178
163.75 -0.000910642
163.76 -0.000787332
163.77 -0.000656152
163.78 -0.000520947
163.79 -0.000385176
163.8 -0.000252155
163.81 -0.00012498
163.82 -6.4564e-06
163.83 0.000100965
163.84 0.000195081
163.85 0.000273113
163.86 0.000335203
163.87 0.000380874
163.88 0.000410168
163.89 0.000423629
163.9 0.000422294
163.91 0.000407656
163.92 0.000381626
163.93 0.000346153
163.94 0.000304229
163.95 0.000259099
163.96 0.00021376
163.97 0.000171267
163.98 0.00013466
163.99 0.000106875
164 9.0672e-05
164.01 8.8557e-05
164.02 0.000104333
164.03 0.00013849
164.04 0.000192188
164.05 0.000266173
164.06 0.000360663
164.07 0.000475333
164.08 0.000609311
164.09 0.000761178
164.1 0.00092946
164.11 0.00111172
164.12 0.00130405
164.13 0.00150311
164.14 0.00170523
164.15 0.00190654
164.16 0.00210299
164.17 0.0022905
164.18 0.00246498
164.19 0.00262096
164.2 0.00275527
164.21 0.00286492
164.22 0.00294693
164.23 0.00299885
164.24 0.00301871
164.25 0.00300517
164.26 0.00295752
164.27 0.00287507
164.28 0.00275671
164.29 0.00260649
164.3 0.00242655
164.31 0.00221969
164.32 0.00198925
164.33 0.00173916
164.34 0.00147376
164.35 0.0011978
164.36 0.000916326
164.37 0.000635302
164.38 0.000360232
164.39 9.63939e-05
164.4 -0.000151092
164.41 -0.000377363
164.42 -0.000577926
164.43 -0.000748744
164.44 -0.000886209
164.45 -0.000984102
164.46 -0.00104353
164.47 -0.00106327
164.48 -0.00104295
164.49 -0.000982968
164.5 -0.000884593
164.51 -0.000749897
164.52 -0.000581743
164.53 -0.000382654
164.54 -0.000157328
164.55 8.76857e-05
164.56 0.000346853
164.57 0.000614248
164.58 0.000883661
164.59 0.00114872
164.6 0.00140302
164.61 0.00164023
164.62 0.00185185
164.63 0.00203329
164.64 0.00217966
164.65 0.00228637
164.66 0.00234953
164.67 0.00236606
164.68 0.00233372
164.69 0.00225117
164.7 0.00211671
164.71 0.00192915
164.72 0.00169373
164.73 0.00141326
164.74 0.00109148
164.75 0.000733016
164.76 0.000343278
164.77 -7.1596e-05
164.78 -0.000504859
164.79 -0.000949484
164.8 -0.00139656
164.81 -0.00183791
164.82 -0.00226557
164.83 -0.00267167
164.84 -0.00304855
164.85 -0.00338891
164.86 -0.00368595
164.87 -0.00393282
164.88 -0.00411969
164.89 -0.00424632
164.9 -0.00430923
164.91 -0.00430596
164.92 -0.00423511
164.93 -0.00409635
164.94 -0.00389045
164.95 -0.00361928
164.96 -0.00328276
164.97 -0.00288593
164.98 -0.00243657
164.99 -0.00194059
165 -0.00140463
165.01 -0.000835988
165.02 -0.000242419
165.03 0.00036794
165.04 0.000986731
165.05 0.00160475
165.06 0.00221295
165.07 0.00280324
165.08 0.00336788
165.09 0.00389964
165.1 0.00439189
165.11 0.00483873
165.12 0.00523507
165.13 0.0055746
165.14 0.00585242
165.15 0.00606971
165.16 0.0062254
165.17 0.00631941
165.18 0.00635262
165.19 0.00632686
165.2 0.00624482
165.21 0.00611001
165.22 0.00592338
165.23 0.00569303
165.24 0.00542535
165.25 0.00512618
165.26 0.00480159
165.27 0.00445776
165.28 0.00410089
165.29 0.00373706
165.3 0.0033722
165.31 0.00301258
165.32 0.00266316
165.33 0.00232831
165.34 0.00201181
165.35 0.00171673
165.36 0.00144546
165.37 0.00119965
165.38 0.000980181
165.39 0.000788783
165.4 0.00062411
165.41 0.000483887
165.42 0.000366181
165.43 0.000268539
165.44 0.000188076
165.45 0.000121563
165.46 6.55273e-05
165.47 1.63655e-05
165.48 -2.96499e-05
165.49 -7.66315e-05
165.5 -0.000127931
165.51 -0.000186603
165.52 -0.000255323
165.53 -0.000336299
165.54 -0.000431214
165.55 -0.000541162
165.56 -0.000667283
165.57 -0.000809383
165.58 -0.000965666
165.59 -0.00113447
165.6 -0.00131349
165.61 -0.00149985
165.62 -0.00169012
165.63 -0.0018804
165.64 -0.00206642
165.65 -0.00224245
165.66 -0.00240389
165.67 -0.00254597
165.68 -0.00266383
165.69 -0.00275279
165.7 -0.00280843
165.71 -0.00282666
165.72 -0.00280392
165.73 -0.00273583
165.74 -0.00261806
165.75 -0.00245206
165.76 -0.00223712
165.77 -0.00197335
165.78 -0.00166171
165.79 -0.00130403
165.8 -0.000902957
165.81 -0.000461982
165.82 1.67125e-05
165.83 0.000526057
165.84 0.00105935
165.85 0.00161031
165.86 0.0021722
165.87 0.00273797
165.88 0.00330036
165.89 0.00385203
165.9 0.00438533
165.91 0.00489068
165.92 0.00536287
165.93 0.00579555
165.94 0.00618293
165.95 0.00651985
165.96 0.00680188
165.97 0.0070254
165.98 0.00718764
165.99 0.00728343
166 0.00731249
166.01 0.00727779
166.02 0.00718055
166.03 0.00702291
166.04 0.00680789
166.05 0.00653933
166.06 0.00622183
166.07 0.00586065
166.08 0.00545872
166.09 0.00502629
166.1 0.0045702
166.11 0.00409736
166.12 0.00361483
166.13 0.00312959
166.14 0.00264852
166.15 0.00217823
166.16 0.00172583
166.17 0.00129826
166.18 0.000899597
166.19 0.000534363
166.2 0.000206374
166.21 -8.12765e-05
166.22 -0.00032625
166.23 -0.000526978
166.24 -0.00068266
166.25 -0.000789867
166.26 -0.000852049
166.27 -0.000871544
166.28 -0.000850465
166.29 -0.000791471
166.3 -0.000697687
166.31 -0.00057262
166.32 -0.00042008
166.33 -0.000243683
166.34 -4.70103e-05
166.35 0.000164101
166.36 0.00038557
166.37 0.000613469
166.38 0.000844104
166.39 0.00107407
166.4 0.00130031
166.41 0.00152015
166.42 0.00173072
166.43 0.0019303
166.44 0.00211794
166.45 0.00229287
166.46 0.0024547
166.47 0.00260348
166.48 0.00273959
166.49 0.00286376
166.5 0.00297691
166.51 0.00307954
166.52 0.00317397
166.53 0.00326161
166.54 0.00334388
166.55 0.00342211
166.56 0.00349753
166.57 0.00357116
166.58 0.0036438
166.59 0.00371597
166.6 0.00378788
166.61 0.00385936
166.62 0.00392986
166.63 0.00399853
166.64 0.00406414
166.65 0.0041252
166.66 0.0041799
166.67 0.00422622
166.68 0.00426087
166.69 0.00428207
166.7 0.00428754
166.71 0.00427489
166.72 0.00424185
166.73 0.0041863
166.74 0.00410636
166.75 0.00400045
166.76 0.00386653
166.77 0.00370277
166.78 0.00351076
166.79 0.00329079
166.8 0.00304372
166.81 0.00277096
166.82 0.00247445
166.83 0.00215671
166.84 0.00182075
166.85 0.00146933
166.86 0.00110751
166.87 0.000740032
166.88 0.000371568
166.89 6.99214e-06
166.9 -0.000348708
166.91 -0.000690522
166.92 -0.00101351
166.93 -0.00131251
166.94 -0.00158069
166.95 -0.00181599
166.96 -0.00201481
166.97 -0.00217413
166.98 -0.00229152
166.99 -0.00236524
167 -0.00239427
167.01 -0.00237832
167.02 -0.00231559
167.03 -0.00220814
167.04 -0.00205999
167.05 -0.00187406
167.06 -0.00165394
167.07 -0.00140381
167.08 -0.0011284
167.09 -0.000832886
167.1 -0.000522777
167.11 -0.00020357
167.12 0.000117563
167.13 0.000434718
167.14 0.00074214
167.15 0.00103433
167.16 0.00130613
167.17 0.00155289
167.18 0.00177048
167.19 0.00195413
167.2 0.00210018
167.21 0.00220878
167.22 0.00227903
167.23 0.00231088
167.24 0.00230517
167.25 0.00226359
167.26 0.00218865
167.27 0.00208365
167.28 0.00195095
167.29 0.00179728
167.3 0.00162838
167.31 0.00144992
167.32 0.00126786
167.33 0.00108833
167.34 0.000917462
167.35 0.000761267
167.36 0.0006261
167.37 0.000519196
167.38 0.000443763
167.39 0.000403904
167.4 0.000402977
167.41 0.000443503
167.42 0.000527101
167.43 0.000654433
167.44 0.000825169
167.45 0.00104042
167.46 0.00129625
167.47 0.00158775
167.48 0.0019105
167.49 0.00225924
167.5 0.00262798
167.51 0.00301009
167.52 0.00339843
167.53 0.00378542
167.54 0.00416182
167.55 0.00452003
167.56 0.00485236
167.57 0.00515137
167.58 0.00541009
167.59 0.0056221
167.6 0.0057817
167.61 0.00588402
167.62 0.00592222
167.63 0.00589302
167.64 0.00579798
167.65 0.0056368
167.66 0.00541043
167.67 0.00512101
167.68 0.0047719
167.69 0.00436758
167.7 0.00391364
167.71 0.00341364
167.72 0.00287911
167.73 0.00231882
167.74 0.00174173
167.75 0.00115724
167.76 0.000574967
167.77 4.63325e-06
167.78 -0.000544154
167.79 -0.00106084
167.8 -0.00153425
167.81 -0.00195836
167.82 -0.00232591
167.83 -0.00263059
167.84 -0.00286715
167.85 -0.00303155
167.86 -0.00312098
167.87 -0.00313395
167.88 -0.00306506
167.89 -0.00291929
167.9 -0.00270139
167.91 -0.00241549
167.92 -0.00206689
167.93 -0.00166204
167.94 -0.00120831
167.95 -0.000713952
167.96 -0.000187577
167.97 0.000361786
167.98 0.00092188
167.99 0.00148276
168 0.00203455
168.01 0.00256766
168.02 0.00307291
168.03 0.00354178
168.04 0.0039665
168.05 0.00433714
168.06 0.00464805
168.07 0.00489698
168.08 0.00508082
168.09 0.00519777
168.1 0.00524737
168.11 0.00523046
168.12 0.00514921
168.13 0.00500701
168.14 0.00480369
168.15 0.00455072
168.16 0.00425494
168.17 0.00392387
168.18 0.00356566
168.19 0.00318887
168.2 0.00280231
168.21 0.00241485
168.22 0.00203586
168.23 0.00167504
168.24 0.00133965
168.25 0.00103679
168.26 0.000772697
168.27 0.000552609
168.28 0.000380686
168.29 0.0002599
168.3 0.000191978
168.31 0.000181457
168.32 0.000223905
168.33 0.000316017
168.34 0.000454142
168.35 0.000633491
168.36 0.000848233
168.37 0.00109162
168.38 0.00135614
168.39 0.00163376
168.4 0.00191515
168.41 0.00219064
168.42 0.00245142
168.43 0.00268887
168.44 0.00289474
168.45 0.0030614
168.46 0.00318197
168.47 0.00325049
168.48 0.00325828
168.49 0.0032032
168.5 0.00308503
168.51 0.00290315
168.52 0.00265836
168.53 0.00235294
168.54 0.00199061
168.55 0.00157649
168.56 0.00111675
168.57 0.000616937
168.58 8.99225e-05
168.59 -0.000454389
168.6 -0.00100537
168.61 -0.00155186
168.62 -0.00208239
168.63 -0.0025854
168.64 -0.00304945
168.65 -0.00346058
168.66 -0.003807
168.67 -0.00408167
168.68 -0.00427616
168.69 -0.00438326
168.7 -0.00439717
168.71 -0.00431362
168.72 -0.00412997
168.73 -0.00384535
168.74 -0.00345222
168.75 -0.00296165
168.76 -0.00237935
168.77 -0.00171194
168.78 -0.000967695
168.79 -0.000156402
168.8 0.000710777
168.81 0.00162148
168.82 0.0025628
168.83 0.00351938
168.84 0.00447463
168.85 0.00541351
168.86 0.006321
168.87 0.00718234
168.88 0.00798331
168.89 0.00871046
168.9 0.00935133
168.91 0.0098871
168.92 0.0103118
168.93 0.01062
168.94 0.0108057
168.95 0.0108648
168.96 0.0107953
168.97 0.0105969
168.98 0.0102717
168.99 0.00982183
169 0.00924661
169.01 0.00856387
169.02 0.0077835
169.03 0.00691695
169.04 0.005977
169.05 0.00497758
169.06 0.00393354
169.07 0.00286041
169.08 0.00177434
169.09 0.000693558
169.1 -0.000365544
169.11 -0.00138745
169.12 -0.00235733
169.13 -0.00326124
169.14 -0.00408638
169.15 -0.00482124
169.16 -0.00545581
169.17 -0.00597088
169.18 -0.00636989
169.19 -0.00664852
169.2 -0.00680437
169.21 -0.00683694
169.22 -0.00674765
169.23 -0.00653974
169.24 -0.00621823
169.25 -0.00578589
169.26 -0.00525058
169.27 -0.00462795
169.28 -0.00392896
169.29 -0.00316546
169.3 -0.00235003
169.31 -0.00149573
169.32 -0.000615874
169.33 0.000276175
169.34 0.00116615
169.35 0.00204024
169.36 0.00288649
169.37 0.00369374
169.38 0.00445185
169.39 0.00515179
169.4 0.00578579
169.41 0.00634742
169.42 0.00682972
169.43 0.00722513
169.44 0.00753739
169.45 0.00776615
169.46 0.00791246
169.47 0.00797869
169.48 0.00796842
169.49 0.00788631
169.5 0.00773802
169.51 0.00752672
169.52 0.00726236
169.53 0.00695454
169.54 0.0066113
169.55 0.00624081
169.56 0.00585122
169.57 0.00545049
169.58 0.00504623
169.59 0.00464566
169.6 0.00425669
169.61 0.00388458
169.62 0.00353418
169.63 0.00320946
169.64 0.00291349
169.65 0.00264843
169.66 0.00241547
169.67 0.00221495
169.68 0.00204774
169.69 0.00191216
169.7 0.00180447
169.71 0.00172178
169.72 0.00166068
169.73 0.00161735
169.74 0.00158767
169.75 0.00156737
169.76 0.00155208
169.77 0.00153723
169.78 0.00151836
169.79 0.00149172
169.8 0.00145397
169.81 0.00140227
169.82 0.00133432
169.83 0.00124842
169.84 0.00114353
169.85 0.00101865
169.86 0.000873613
169.87 0.00071073
169.88 0.000531727
169.89 0.000338907
169.9 0.000135093
169.91 -7.64413e-05
169.92 -0.000292058
169.93 -0.000507835
169.94 -0.000719078
169.95 -0.000921362
169.96 -0.00111063
169.97 -0.00128287
169.98 -0.00143429
169.99 -0.00156144
170 -0.00166126
170.01 -0.00173115
170.02 -0.00176851
170.03 -0.00176975
170.04 -0.00173667
170.05 -0.00166922
170.06 -0.00156797
170.07 -0.00143415
170.08 -0.00126957
170.09 -0.00107661
170.1 -0.000858183
170.11 -0.000616603
170.12 -0.000356488
170.13 -8.27484e-05
170.14 0.000200344
170.15 0.000488424
170.16 0.000777121
170.17 0.00106215
170.18 0.00133941
170.19 0.00160504
170.2 0.00185383
170.21 0.00208395
170.22 0.00229289
170.23 0.00247869
170.24 0.00263992
170.25 0.00277576
170.26 0.00288598
170.27 0.00297093
170.28 0.00303059
170.29 0.00306634
170.3 0.00308154
170.31 0.00307865
170.32 0.00306046
170.33 0.00303007
170.34 0.00299075
170.35 0.00294588
170.36 0.00289887
170.37 0.00285342
170.38 0.0028129
170.39 0.00278019
170.4 0.00275784
170.41 0.00274803
170.42 0.00275247
170.43 0.00277241
170.44 0.00280853
170.45 0.00286137
170.46 0.00293112
170.47 0.00301555
170.48 0.00311301
170.49 0.00322137
170.5 0.00333805
170.51 0.00346007
170.52 0.00358411
170.53 0.00370661
170.54 0.00382324
170.55 0.00392992
170.56 0.00402301
170.57 0.00409882
170.58 0.00415386
170.59 0.00418493
170.6 0.00418919
170.61 0.00416426
170.62 0.00410793
170.63 0.00401637
170.64 0.00389166
170.65 0.00373385
170.66 0.00354365
170.67 0.00332242
170.68 0.00307214
170.69 0.0027954
170.7 0.00249534
170.71 0.00217488
170.72 0.00183876
170.73 0.00149239
170.74 0.0011406
170.75 0.00078834
170.76 0.000440679
170.77 0.000102644
170.78 -0.000220854
170.79 -0.000525119
170.8 -0.000803319
170.81 -0.00105315
170.82 -0.00127136
170.83 -0.00145513
170.84 -0.00160223
170.85 -0.00171112
170.86 -0.00178092
170.87 -0.00181149
170.88 -0.00180211
170.89 -0.00175324
170.9 -0.0016693
170.91 -0.00155298
170.92 -0.00140754
170.93 -0.00123672
170.94 -0.00104469
170.95 -0.000835965
170.96 -0.000615282
170.97 -0.000387394
170.98 -0.000158098
170.99 6.7604e-05
171 0.000285023
171.01 0.000489742
171.02 0.000677694
171.03 0.000845249
171.04 0.00098928
171.05 0.00110672
171.06 0.00119382
171.07 0.00125146
171.08 0.00127916
171.09 0.00127709
171.1 0.0012461
171.11 0.00118765
171.12 0.00110382
171.13 0.000997208
171.14 0.000869987
171.15 0.000726507
171.16 0.000571372
171.17 0.000408681
171.18 0.000242658
171.19 7.7552e-05
171.2 -8.24557e-05
171.21 -0.000233343
171.22 -0.000371302
171.23 -0.000491133
171.24 -0.000591164
171.25 -0.00066897
171.26 -0.000722672
171.27 -0.000750977
171.28 -0.000753208
171.29 -0.000729317
171.3 -0.000679888
171.31 -0.000605184
171.32 -0.000507042
171.33 -0.000389203
171.34 -0.000254617
171.35 -0.00010665
171.36 5.09851e-05
171.37 0.000214316
171.38 0.000379195
171.39 0.000541389
171.4 0.000695778
171.41 0.000838366
171.42 0.000965391
171.43 0.0010733
171.44 0.00115893
171.45 0.00121956
171.46 0.001253
171.47 0.00125762
171.48 0.0012316
171.49 0.00117329
171.5 0.00108515
171.51 0.000968197
171.52 0.000824084
171.53 0.000655037
171.54 0.00046382
171.55 0.000253674
171.56 2.82483e-05
171.57 -0.000208926
171.58 -0.000452718
171.59 -0.000698401
171.6 -0.000941525
171.61 -0.00117769
171.62 -0.00140266
171.63 -0.00161243
171.64 -0.00180331
171.65 -0.00197176
171.66 -0.00211293
171.67 -0.00222659
171.68 -0.00231122
171.69 -0.00236591
171.7 -0.0023904
171.71 -0.0023851
171.72 -0.00235104
171.73 -0.00228988
171.74 -0.00220277
171.75 -0.00209303
171.76 -0.0019651
171.77 -0.0018227
171.78 -0.00166985
171.79 -0.00151077
171.8 -0.00134978
171.81 -0.00119123
171.82 -0.00103937
171.83 -0.00089957
171.84 -0.000774975
171.85 -0.000668846
171.86 -0.000584035
171.87 -0.000522854
171.88 -0.000487024
171.89 -0.000477626
171.9 -0.000495067
171.91 -0.000539945
171.92 -0.000611749
171.93 -0.000707075
171.94 -0.000823477
171.95 -0.000957908
171.96 -0.00110679
171.97 -0.00126607
171.98 -0.00143131
171.99 -0.0015978
172 -0.00175995
172.01 -0.00191244
172.02 -0.00205039
172.03 -0.00216896
172.04 -0.00226358
172.05 -0.00233004
172.06 -0.00236457
172.07 -0.00236396
172.08 -0.00232483
172.09 -0.00224288
172.1 -0.00211998
172.11 -0.0019559
172.12 -0.0017512
172.13 -0.00150723
172.14 -0.00122614
172.15 -0.000910825
172.16 -0.000564895
172.17 -0.000191367
172.18 0.000203704
172.19 0.000613949
172.2 0.00103357
172.21 0.00145648
172.22 0.00187648
172.23 0.0022873
172.24 0.00268274
172.25 0.00305673
172.26 0.00340069
172.27 0.00371148
172.28 0.00398447
172.29 0.00421565
172.3 0.00440171
172.31 0.00454008
172.32 0.004629
172.33 0.00466753
172.34 0.00465348
172.35 0.00458736
172.36 0.00447355
172.37 0.00431461
172.38 0.00411383
172.39 0.00387514
172.4 0.00360306
172.41 0.00330258
172.42 0.00297911
172.43 0.00263736
172.44 0.00228492
172.45 0.00192788
172.46 0.001572
172.47 0.00122288
172.48 0.00088577
172.49 0.000565528
172.5 0.000266506
172.51 -6.75431e-06
172.52 -0.000249716
172.53 -0.000461844
172.54 -0.000641623
172.55 -0.000788297
172.56 -0.00090187
172.57 -0.000983093
172.58 -0.00103343
172.59 -0.001055
172.6 -0.00104905
172.61 -0.00102026
172.62 -0.000973176
172.63 -0.000911933
172.64 -0.000840903
172.65 -0.000764577
172.66 -0.000687456
172.67 -0.000613947
172.68 -0.000548392
172.69 -0.000495883
172.7 -0.000459103
172.71 -0.000440932
172.72 -0.000443668
172.73 -0.000468971
172.74 -0.000517822
172.75 -0.000590484
172.76 -0.0006865
172.77 -0.000805716
172.78 -0.000945751
172.79 -0.00110294
172.8 -0.00127398
172.81 -0.00145502
172.82 -0.00164177
172.83 -0.00182958
172.84 -0.00201353
172.85 -0.00218855
172.86 -0.00234781
172.87 -0.0024871
172.88 -0.00260172
172.89 -0.00268722
172.9 -0.00273961
172.91 -0.00275543
172.92 -0.00273187
172.93 -0.00266678
172.94 -0.00255728
172.95 -0.00240185
172.96 -0.00220354
172.97 -0.00196375
172.98 -0.00168471
172.99 -0.00136951
173 -0.00102203
173.01 -0.000646897
173.02 -0.000249383
173.03 0.000165394
173.04 0.000589492
173.05 0.00101582
173.06 0.00143738
173.07 0.00184709
173.08 0.00223789
173.09 0.0026029
173.1 0.00293554
173.11 0.00322876
173.12 0.00347398
173.13 0.00366932
173.14 0.00381076
173.15 0.00389508
173.16 0.00392002
173.17 0.00388426
173.18 0.00378746
173.19 0.0036303
173.2 0.00341114
173.21 0.0031345
173.22 0.00280622
173.23 0.00243097
173.24 0.00201418
173.25 0.00156197
173.26 0.00108105
173.27 0.000578583
173.28 6.20551e-05
173.29 -0.000460591
173.3 -0.000980403
173.31 -0.00148967
173.32 -0.0019809
173.33 -0.00244696
173.34 -0.00288115
173.35 -0.00327739
173.36 -0.00363024
173.37 -0.00393274
173.38 -0.00418032
173.39 -0.00437269
173.4 -0.00450805
173.41 -0.00458551
173.42 -0.00460515
173.43 -0.00456796
173.44 -0.00447582
173.45 -0.00433143
173.46 -0.00413458
173.47 -0.00389343
173.48 -0.00361343
173.49 -0.00329995
173.5 -0.00295873
173.51 -0.00259576
173.52 -0.00221716
173.53 -0.00182908
173.54 -0.00143765
173.55 -0.00104946
173.56 -0.000670128
173.57 -0.000304704
173.58 4.2266e-05
173.59 0.0003668
173.6 0.000665534
173.61 0.000935761
173.62 0.00117545
173.63 0.00138108
173.64 0.00155331
173.65 0.00169318
173.66 0.00180147
173.67 0.00187954
173.68 0.00192925
173.69 0.00195291
173.7 0.00195317
173.71 0.00193275
173.72 0.00189389
173.73 0.00184146
173.74 0.00177865
173.75 0.00170856
173.76 0.00163408
173.77 0.00155785
173.78 0.00148218
173.79 0.00140898
173.8 0.00133999
173.81 0.00127625
173.82 0.00121797
173.83 0.00116505
173.84 0.00111691
173.85 0.00107249
173.86 0.00103031
173.87 0.000988496
173.88 0.00094484
173.89 0.000896248
173.9 0.000840216
173.91 0.000773993
173.92 0.000694818
173.93 0.000600019
173.94 0.000487096
173.95 0.000353811
173.96 0.000198263
173.97 1.80578e-05
173.98 -0.000188413
173.99 -0.000420106
174 -0.000676785
174.01 -0.000957601
174.02 -0.00126108
174.03 -0.00158512
174.04 -0.00192701
174.05 -0.00228346
174.06 -0.0026511
174.07 -0.0030245
174.08 -0.00339867
174.09 -0.00376844
174.1 -0.00412846
174.11 -0.00447324
174.12 -0.00479725
174.13 -0.00509508
174.14 -0.00536072
174.15 -0.0055868
174.16 -0.00577128
174.17 -0.00591025
174.18 -0.00600043
174.19 -0.00603922
174.2 -0.00602478
174.21 -0.0059561
174.22 -0.00583299
174.23 -0.00565302
174.24 -0.00541948
174.25 -0.00513685
174.26 -0.00480864
174.27 -0.00443912
174.28 -0.00403331
174.29 -0.00359687
174.3 -0.00313604
174.31 -0.00265745
174.32 -0.00216798
174.33 -0.00167641
174.34 -0.00119015
174.35 -0.000716533
174.36 -0.000262733
174.37 0.000164387
174.38 0.000558383
174.39 0.000913349
174.4 0.00122183
174.41 0.00147856
174.42 0.00168229
174.43 0.00183041
174.44 0.00192125
174.45 0.00195413
174.46 0.00192934
174.47 0.00184816
174.48 0.00171284
174.49 0.00152259
174.5 0.00128569
174.51 0.00100763
174.52 0.000694099
174.53 0.000351323
174.54 -1.39869e-05
174.55 -0.00039478
174.56 -0.000783784
174.57 -0.00117343
174.58 -0.00155535
174.59 -0.00192245
174.6 -0.00226798
174.61 -0.00258563
174.62 -0.00286962
174.63 -0.00311485
174.64 -0.00331696
174.65 -0.00347238
174.66 -0.00357493
174.67 -0.00362488
174.68 -0.0036229
174.69 -0.00356933
174.7 -0.00346541
174.71 -0.00331331
174.72 -0.00311602
174.73 -0.00287735
174.74 -0.00260139
174.75 -0.00229174
174.76 -0.00195711
174.77 -0.00160372
174.78 -0.00123802
174.79 -0.000866678
174.8 -0.000496393
174.81 -0.000133805
174.82 0.000214626
174.83 0.000541332
174.84 0.000840123
174.85 0.00110671
174.86 0.00133654
174.87 0.00152569
174.88 0.00167098
174.89 0.00176999
174.9 0.00182108
174.91 0.00182343
174.92 0.00177257
174.93 0.00167388
174.94 0.00152917
174.95 0.00134085
174.96 0.001112
174.97 0.000846287
174.98 0.000547889
174.99 0.000221424
175 -0.000128801
175.01 -0.000497254
175.02 -0.000877242
175.03 -0.0012633
175.04 -0.00165001
175.05 -0.00203208
175.06 -0.00240441
175.07 -0.00276221
175.08 -0.00310103
175.09 -0.00341477
175.1 -0.00370095
175.11 -0.00395702
175.12 -0.00418056
175.13 -0.00436969
175.14 -0.00452309
175.15 -0.00464
175.16 -0.00472016
175.17 -0.00476309
175.18 -0.00476785
175.19 -0.00473839
175.2 -0.0046764
175.21 -0.00458389
175.22 -0.00446317
175.23 -0.00431678
175.24 -0.00414743
175.25 -0.00395795
175.26 -0.00375037
175.27 -0.00352841
175.28 -0.0032955
175.29 -0.00305445
175.3 -0.00280791
175.31 -0.00255842
175.32 -0.00230834
175.33 -0.00205984
175.34 -0.00181492
175.35 -0.00157594
175.36 -0.00134409
175.37 -0.00112067
175.38 -0.000906837
175.39 -0.000703547
175.4 -0.000511618
175.41 -0.00033173
175.42 -0.000164451
175.43 -1.0877e-05
175.44 0.000128499
175.45 0.000253971
175.46 0.000365222
175.47 0.000461949
175.48 0.000543853
175.49 0.000610633
175.5 0.000661981
175.51 0.000697584
175.52 0.000715733
175.53 0.000717313
175.54 0.000702195
175.55 0.000670135
175.56 0.000620949
175.57 0.000554528
175.58 0.000470864
175.59 0.000370066
175.6 0.000251891
175.61 0.000116258
175.62 -3.51141e-05
175.63 -0.000201389
175.64 -0.000381524
175.65 -0.000574263
175.66 -0.000778133
175.67 -0.000991451
175.68 -0.00121233
175.69 -0.00143892
175.7 -0.00166849
175.71 -0.00189848
175.72 -0.00212641
175.73 -0.00234968
175.74 -0.0025657
175.75 -0.00277191
175.76 -0.00296579
175.77 -0.00314468
175.78 -0.00330504
175.79 -0.00344607
175.8 -0.00356608
175.81 -0.00366363
175.82 -0.00373764
175.83 -0.00378739
175.84 -0.00381254
175.85 -0.00381317
175.86 -0.00378851
175.87 -0.00373996
175.88 -0.00366987
175.89 -0.00358003
175.9 -0.00347258
175.91 -0.00334998
175.92 -0.00321496
175.93 -0.00307049
175.94 -0.00291971
175.95 -0.00276592
175.96 -0.00261295
175.97 -0.00246407
175.98 -0.00232247
175.99 -0.00219113
176 -0.00207281
176.01 -0.00196999
176.02 -0.00188477
176.03 -0.00181967
176.04 -0.00177639
176.05 -0.00175451
176.06 -0.00175418
176.07 -0.00177505
176.08 -0.00181623
176.09 -0.00187633
176.1 -0.00195348
176.11 -0.00204535
176.12 -0.0021499
176.13 -0.00226296
176.14 -0.00238091
176.15 -0.00250011
176.16 -0.00261681
176.17 -0.00272722
176.18 -0.0028276
176.19 -0.00291435
176.2 -0.0029836
176.21 -0.00303101
176.22 -0.00305523
176.23 -0.00305414
176.24 -0.00302616
176.25 -0.00297028
176.26 -0.00288614
176.27 -0.002774
176.28 -0.00263484
176.29 -0.00246882
176.3 -0.00227933
176.31 -0.00207022
176.32 -0.00184512
176.33 -0.00160813
176.34 -0.0013638
176.35 -0.00111706
176.36 -0.00087306
176.37 -0.000637227
176.38 -0.000416537
176.39 -0.000215483
176.4 -3.91289e-05
176.41 0.000107783
176.42 0.000220944
176.43 0.000296579
176.44 0.000331546
176.45 0.00032342
176.46 0.000268441
176.47 0.000165795
176.48 1.79622e-05
176.49 -0.000173798
176.5 -0.000407292
176.51 -0.000679409
176.52 -0.000986153
176.53 -0.00132269
176.54 -0.00168342
176.55 -0.002063
176.56 -0.00245249
176.57 -0.00284434
176.58 -0.00323081
176.59 -0.00360402
176.6 -0.00395606
176.61 -0.00427913
176.62 -0.00456575
176.63 -0.00480725
176.64 -0.00499484
176.65 -0.00512574
176.66 -0.00519518
176.67 -0.00519941
176.68 -0.00513571
176.69 -0.00500252
176.7 -0.00479946
176.71 -0.0045274
176.72 -0.00418393
176.73 -0.00377606
176.74 -0.00331017
176.75 -0.00279217
176.76 -0.00222903
176.77 -0.00162862
176.78 -0.000999638
176.79 -0.000351432
176.8 0.000306108
176.81 0.000961628
176.82 0.00160413
176.83 0.00222329
176.84 0.00280904
176.85 0.00335172
176.86 0.00384231
176.87 0.00427252
176.88 0.00463501
176.89 0.00491913
176.9 0.00512048
176.91 0.00523852
176.92 0.00527116
176.93 0.0052177
176.94 0.00507891
176.95 0.00485702
176.96 0.00455567
176.97 0.00417984
176.98 0.00373007
176.99 0.00322102
177 0.00266141
177.01 0.00206078
177.02 0.0014294
177.03 0.00077799
177.04 0.000117615
177.05 -0.000540574
177.06 -0.00118455
177.07 -0.00180191
177.08 -0.00238336
177.09 -0.00291951
177.1 -0.0034019
177.11 -0.00382312
177.12 -0.00417696
177.13 -0.00445854
177.14 -0.00466435
177.15 -0.00478621
177.16 -0.00482872
177.17 -0.00479445
177.18 -0.00468625
177.19 -0.00450839
177.2 -0.00426648
177.21 -0.00396735
177.22 -0.00361897
177.23 -0.00322948
177.24 -0.00280827
177.25 -0.00236841
177.26 -0.00192059
177.27 -0.00147558
177.28 -0.00104406
177.29 -0.000636385
177.3 -0.000262409
177.31 6.87366e-05
177.32 0.000345125
177.33 0.000560615
177.34 0.000711202
177.35 0.000792629
177.36 0.000802105
177.37 0.000738366
177.38 0.000601708
177.39 0.000393996
177.4 0.00011812
177.41 -0.000225293
177.42 -0.000623858
177.43 -0.00106972
177.44 -0.00155392
177.45 -0.00206657
177.46 -0.00259703
177.47 -0.00313411
177.48 -0.00366629
177.49 -0.00418059
177.5 -0.00466407
177.51 -0.00510656
177.52 -0.00549766
177.53 -0.0058278
177.54 -0.00608846
177.55 -0.00627232
177.56 -0.00637345
177.57 -0.0063874
177.58 -0.00630336
177.59 -0.00612757
177.6 -0.00586163
177.61 -0.00550826
177.62 -0.00507186
177.63 -0.00455845
177.64 -0.00397562
177.65 -0.00333237
177.66 -0.00263775
177.67 -0.0019034
177.68 -0.00114481
177.69 -0.000375038
177.7 0.000392448
177.71 0.00114404
177.72 0.00186621
177.73 0.00254578
177.74 0.00317016
177.75 0.00372196
177.76 0.00419276
177.77 0.00457492
177.78 0.00486068
177.79 0.00504388
177.8 0.00512008
177.81 0.00508665
177.82 0.0049428
177.83 0.0046879
177.84 0.00431892
177.85 0.00384959
177.86 0.00328689
177.87 0.00263939
177.88 0.00191713
177.89 0.00113144
177.9 0.00029474
177.91 -0.000579657
177.92 -0.00147829
177.93 -0.00238462
177.94 -0.00328328
177.95 -0.00415991
177.96 -0.00500055
177.97 -0.0057919
177.98 -0.00652151
177.99 -0.00717803
178 -0.0077513
178.01 -0.00822352
178.02 -0.00859598
178.03 -0.00886374
178.04 -0.0090237
178.05 -0.00907455
178.06 -0.00901685
178.07 -0.00885297
178.08 -0.00858703
178.09 -0.00822127
178.1 -0.00776291
178.11 -0.00722618
178.12 -0.00662131
178.13 -0.00595957
178.14 -0.00525294
178.15 -0.00451401
178.16 -0.00375567
178.17 -0.0029909
178.18 -0.00223405
178.19 -0.00149825
178.2 -0.000795069
178.21 -0.000135331
178.22 0.000471165
178.23 0.00101582
178.24 0.00149137
178.25 0.001892
178.26 0.00221137
178.27 0.00244297
178.28 0.00259164
178.29 0.00265822
178.3 0.00264509
178.31 0.0025561
178.32 0.00239646
178.33 0.00217258
178.34 0.00189197
178.35 0.00156055
178.36 0.00119019
178.37 0.000792082
178.38 0.000376245
178.39 -4.72341e-05
178.4 -0.000468418
178.41 -0.000877715
178.42 -0.00126607
178.43 -0.00162479
178.44 -0.00194298
178.45 -0.00221707
178.46 -0.00244204
178.47 -0.00261414
178.48 -0.00273092
178.49 -0.00279129
178.5 -0.00279551
178.51 -0.00274518
178.52 -0.00264087
178.53 -0.0024875
178.54 -0.00229284
178.55 -0.00206328
178.56 -0.00180601
178.57 -0.00152883
178.58 -0.00124002
178.59 -0.000948144
178.6 -0.000661834
178.61 -0.000391602
178.62 -0.000145154
178.63 6.99883e-05
178.64 0.000246904
178.65 0.00037952
178.66 0.000462743
178.67 0.000492582
178.68 0.000466237
178.69 0.000380248
178.7 0.000232885
178.71 2.91008e-05
178.72 -0.000228397
178.73 -0.000535646
178.74 -0.000887495
178.75 -0.00127771
178.76 -0.00169906
178.77 -0.00214351
178.78 -0.00260269
178.79 -0.00306563
178.8 -0.00352243
178.81 -0.00396342
178.82 -0.00437898
178.83 -0.00475986
178.84 -0.00509724
178.85 -0.00538299
178.86 -0.00560867
178.87 -0.00576355
178.88 -0.00584732
178.89 -0.00585636
178.9 -0.00578836
178.91 -0.00564241
178.92 -0.00541905
178.93 -0.00512025
178.94 -0.00474937
178.95 -0.00430768
178.96 -0.00380338
178.97 -0.00324645
178.98 -0.00264537
178.99 -0.00200951
179 -0.00134892
179.01 -0.000674198
179.02 3.72547e-06
179.03 0.000673743
179.04 0.00132211
179.05 0.00193906
179.06 0.00251446
179.07 0.00303885
179.08 0.00350364
179.09 0.00390125
179.1 0.00422525
179.11 0.00447048
179.12 0.00462964
179.13 0.00469925
179.14 0.00468316
179.15 0.00458232
179.16 0.0043991
179.17 0.0041373
179.18 0.00380204
179.19 0.00339969
179.2 0.00293773
179.21 0.00242123
179.22 0.00186385
179.23 0.00127631
179.24 0.000669013
179.25 5.2604e-05
179.26 -0.000562274
179.27 -0.00116516
179.28 -0.00174597
179.29 -0.0022941
179.3 -0.00279815
179.31 -0.00325271
179.32 -0.00365117
179.33 -0.00398809
179.34 -0.00425934
179.35 -0.00446207
179.36 -0.00459485
179.37 -0.00465763
179.38 -0.00464744
179.39 -0.00456992
179.4 -0.00443132
179.41 -0.00423705
179.42 -0.00399358
179.43 -0.00370829
179.44 -0.00338933
179.45 -0.00304545
179.46 -0.00268574
179.47 -0.0023201
179.48 -0.00195917
179.49 -0.00161218
179.5 -0.00128799
179.51 -0.000994914
179.52 -0.000740535
179.53 -0.000531578
179.54 -0.000373759
179.55 -0.000274623
179.56 -0.000237532
179.57 -0.000261753
179.58 -0.000347732
179.59 -0.000494569
179.6 -0.000700024
179.61 -0.000960559
179.62 -0.0012714
179.63 -0.00162662
179.64 -0.00202187
179.65 -0.00244536
179.66 -0.00288808
179.67 -0.00334068
179.68 -0.00379342
179.69 -0.00423634
179.7 -0.0046595
179.71 -0.00505311
179.72 -0.0054061
179.73 -0.00570736
179.74 -0.00595134
179.75 -0.006131
179.76 -0.0062403
179.77 -0.00627443
179.78 -0.00622978
179.79 -0.00610414
179.8 -0.00589667
179.81 -0.00560213
179.82 -0.00522725
179.83 -0.00477746
179.84 -0.00425788
179.85 -0.00367484
179.86 -0.00303587
179.87 -0.00234952
179.88 -0.00162527
179.89 -0.000873017
179.9 -0.000103795
179.91 0.000669154
179.92 0.00143441
179.93 0.00218056
179.94 0.00289642
179.95 0.0035712
179.96 0.00419467
179.97 0.00475737
179.98 0.00524623
179.99 0.00565449
180 0.00597862
180.01 0.00621383
180.02 0.00635669
180.03 0.00640515
180.04 0.00635865
180.05 0.00621803
180.06 0.00598533
180.07 0.00565687
180.08 0.00524632
180.09 0.00476015
180.1 0.00420594
180.11 0.00359223
180.12 0.00292839
180.13 0.00222444
180.14 0.00149091
180.15 0.000738362
180.16 -2.08638e-05
180.17 -0.000774897
180.18 -0.001513
180.19 -0.00222482
180.2 -0.00290057
180.21 -0.00353115
180.22 -0.00410831
180.23 -0.00462469
180.24 -0.00506811
180.25 -0.00543776
180.26 -0.00573079
180.27 -0.00594472
180.28 -0.00607832
180.29 -0.00613158
180.3 -0.00610569
180.31 -0.00600299
180.32 -0.00582508
180.33 -0.0055742
180.34 -0.00526084
180.35 -0.00489131
180.36 -0.00447258
180.37 -0.00401213
180.38 -0.00351783
180.39 -0.00299778
180.4 -0.00246019
180.41 -0.00191315
180.42 -0.00136584
180.43 -0.000826113
180.44 -0.000301138
180.45 0.000202462
180.46 0.000678705
180.47 0.00112232
180.48 0.00152883
180.49 0.00189407
180.5 0.00221191
180.51 0.00248406
180.52 0.00270966
180.53 0.00288872
180.54 0.00302201
180.55 0.00311111
180.56 0.00315827
180.57 0.00316637
180.58 0.00313723
180.59 0.00307553
180.6 0.00298709
180.61 0.00287647
180.62 0.0027483
180.63 0.0026073
180.64 0.00245809
180.65 0.00230512
180.66 0.00215263
180.67 0.0020052
180.68 0.00186616
180.69 0.00173841
180.7 0.00162435
180.71 0.00152582
180.72 0.00144409
180.73 0.00137986
180.74 0.00133322
180.75 0.00130429
180.76 0.00129228
180.77 0.00129459
180.78 0.00130917
180.79 0.00133361
180.8 0.00136516
180.81 0.00140085
180.82 0.00143755
180.83 0.001472
180.84 0.00150031
180.85 0.00151929
180.86 0.00152606
180.87 0.00151785
180.88 0.00149217
180.89 0.0014469
180.9 0.00138032
180.91 0.00129113
180.92 0.00117807
180.93 0.00103952
180.94 0.000877576
180.95 0.000693049
180.96 0.000487264
180.97 0.000262012
180.98 1.95289e-05
180.99 -0.000237549
181 -0.000506231
181.01 -0.000783504
181.02 -0.00106521
181.03 -0.00134734
181.04 -0.00162608
181.05 -0.00189762
181.06 -0.00215817
181.07 -0.00240411
181.08 -0.002632
181.09 -0.00283854
181.1 -0.00301854
181.11 -0.00317158
181.12 -0.00329567
181.13 -0.00338929
181.14 -0.00345143
181.15 -0.00348155
181.16 -0.00347965
181.17 -0.00344622
181.18 -0.00338102
181.19 -0.00328554
181.2 -0.00316336
181.21 -0.00301694
181.22 -0.00284904
181.23 -0.00266278
181.24 -0.00246149
181.25 -0.00224869
181.26 -0.00202803
181.27 -0.00180318
181.28 -0.00157844
181.29 -0.00135742
181.3 -0.00114354
181.31 -0.000939992
181.32 -0.000749699
181.33 -0.000575253
181.34 -0.000418885
181.35 -0.000283017
181.36 -0.000169978
181.37 -7.92622e-05
181.38 -1.12466e-05
181.39 3.41533e-05
181.4 5.74732e-05
181.41 5.9683e-05
181.42 4.21603e-05
181.43 6.65813e-06
181.44 -4.56418e-05
181.45 -0.000111435
181.46 -0.000187637
181.47 -0.000271424
181.48 -0.000359865
181.49 -0.000449985
181.5 -0.000538825
181.51 -0.0006235
181.52 -0.000701144
181.53 -0.000768298
181.54 -0.000823319
181.55 -0.00086426
181.56 -0.000889512
181.57 -0.000897843
181.58 -0.000888414
181.59 -0.000860802
181.6 -0.000815007
181.61 -0.000750578
181.62 -0.00066867
181.63 -0.000571369
181.64 -0.000460368
181.65 -0.000337693
181.66 -0.000205666
181.67 -6.68514e-05
181.68 7.59861e-05
181.69 0.000219943
181.7 0.000361586
181.71 0.000497829
181.72 0.000625729
181.73 0.00074245
181.74 0.00084533
181.75 0.000931935
181.76 0.00100011
181.77 0.00104803
181.78 0.0010734
181.79 0.00107458
181.8 0.00105233
181.81 0.00100656
181.82 0.000937653
181.83 0.000846449
181.84 0.00073423
181.85 0.000602713
181.86 0.00045402
181.87 0.000289751
181.88 0.000113889
181.89 -7.01275e-05
181.9 -0.000258914
181.91 -0.000448931
181.92 -0.000636541
181.93 -0.000818079
181.94 -0.000989914
181.95 -0.00114817
181.96 -0.00128826
181.97 -0.00140813
181.98 -0.00150501
181.99 -0.0015765
182 -0.00162059
182.01 -0.00163572
182.02 -0.00162081
182.03 -0.00157528
182.04 -0.00149726
182.05 -0.00138812
182.06 -0.00125005
182.07 -0.00108466
182.08 -0.000894076
182.09 -0.000680868
182.1 -0.000448025
182.11 -0.000198908
182.12 6.28466e-05
182.13 0.000333626
182.14 0.000608194
182.15 0.000882276
182.16 0.00115157
182.17 0.00141179
182.18 0.0016588
182.19 0.0018886
182.2 0.00209747
182.21 0.00228077
182.22 0.00243497
182.23 0.00255881
182.24 0.00265028
182.25 0.00270788
182.26 0.00273069
182.27 0.00271833
182.28 0.00267101
182.29 0.00258953
182.3 0.00247268
182.31 0.00232502
182.32 0.00214948
182.33 0.00194907
182.34 0.00172726
182.35 0.00148789
182.36 0.00123507
182.37 0.00097319
182.38 0.000706801
182.39 0.000441078
182.4 0.000180916
182.41 -6.91284e-05
182.42 -0.000304657
182.43 -0.000521507
182.44 -0.000715817
182.45 -0.0008841
182.46 -0.00102329
182.47 -0.00112852
182.48 -0.00119893
182.49 -0.00123402
182.5 -0.00123306
182.51 -0.00119591
182.52 -0.00112307
182.53 -0.00101565
182.54 -0.000875367
182.55 -0.000704129
182.56 -0.000503234
182.57 -0.000278571
182.58 -3.4011e-05
182.59 0.000226202
182.6 0.000497519
182.61 0.000775157
182.62 0.00105417
182.63 0.00132955
182.64 0.00159553
182.65 0.00184668
182.66 0.00207865
182.67 0.00228696
182.68 0.00246746
182.69 0.0026164
182.7 0.00273046
182.71 0.00280685
182.72 0.00284333
182.73 0.0028343
182.74 0.0027825
182.75 0.00268778
182.76 0.00255054
182.77 0.00237182
182.78 0.0021533
182.79 0.00189727
182.8 0.00160657
182.81 0.0012836
182.82 0.000932195
182.83 0.000558531
182.84 0.000167356
182.85 -0.000236294
182.86 -0.000647174
182.87 -0.0010599
182.88 -0.00146903
182.89 -0.00186915
182.9 -0.0022534
182.91 -0.00261702
182.92 -0.00295539
182.93 -0.003264
182.94 -0.0035387
182.95 -0.00377576
182.96 -0.00397198
182.97 -0.00412465
182.98 -0.00423063
182.99 -0.00428586
183 -0.00429289
183.01 -0.00425154
183.02 -0.00416227
183.03 -0.0040261
183.04 -0.00384466
183.05 -0.00362012
183.06 -0.00335518
183.07 -0.00305099
183.08 -0.00271267
183.09 -0.00234554
183.1 -0.00195401
183.11 -0.00154275
183.12 -0.00111664
183.13 -0.000680655
183.14 -0.00023988
183.15 0.000200575
183.16 0.000634768
183.17 0.00105793
183.18 0.00146537
183.19 0.00185266
183.2 0.00221563
183.21 0.00255049
183.22 0.00285379
183.23 0.0031225
183.24 0.00335224
183.25 0.00354054
183.26 0.0036877
183.27 0.00379269
183.28 0.00385497
183.29 0.0038745
183.3 0.00385173
183.31 0.00378757
183.32 0.00368342
183.33 0.00353805
183.34 0.00335683
183.35 0.00314281
183.36 0.00289904
183.37 0.00262886
183.38 0.00233587
183.39 0.00202389
183.4 0.00169692
183.41 0.00135889
183.42 0.0010143
183.43 0.000668073
183.44 0.000324455
183.45 -1.23584e-05
183.46 -0.000338275
183.47 -0.000649345
183.48 -0.000941803
183.49 -0.0012121
183.5 -0.00145498
183.51 -0.0016683
183.52 -0.00185011
183.53 -0.00199816
183.54 -0.0021106
183.55 -0.00218596
183.56 -0.00222318
183.57 -0.00222164
183.58 -0.00218058
183.59 -0.00209776
183.6 -0.00197709
183.61 -0.00181978
183.62 -0.00162744
183.63 -0.00140209
183.64 -0.00114616
183.65 -0.000862401
183.66 -0.000553914
183.67 -0.000223154
183.68 0.000125464
183.69 0.00048716
183.7 0.000857839
183.71 0.00123328
183.72 0.00160919
183.73 0.00198126
183.74 0.0023452
183.75 0.0026968
183.76 0.00303009
183.77 0.00334242
183.78 0.00363023
183.79 0.00389023
183.8 0.00411946
183.81 0.00431537
183.82 0.00447581
183.83 0.0045991
183.84 0.00468252
183.85 0.00472466
183.86 0.00472761
183.87 0.00469184
183.88 0.00461833
183.89 0.0045086
183.9 0.00436463
183.91 0.00418892
183.92 0.00398439
183.93 0.00375267
183.94 0.00349942
183.95 0.00322911
183.96 0.00294604
183.97 0.00265469
183.98 0.00235963
183.99 0.00206548
184 0.00177681
184.01 0.00149842
184.02 0.00123576
184.03 0.000992015
184.04 0.000770835
184.05 0.000575456
184.06 0.000408662
184.07 0.000272734
184.08 0.000169405
184.09 9.983e-05
184.1 6.6678e-05
184.11 6.87557e-05
184.12 0.000104095
184.13 0.000171222
184.14 0.000268063
184.15 0.00039197
184.16 0.000539764
184.17 0.000707783
184.18 0.00089202
184.19 0.0010885
184.2 0.00129109
184.21 0.00149484
184.22 0.00169469
184.23 0.00188558
184.24 0.00206257
184.25 0.00222087
184.26 0.00235597
184.27 0.00246229
184.28 0.00253568
184.29 0.00257442
184.3 0.0025761
184.31 0.00253894
184.32 0.00246191
184.33 0.00234468
184.34 0.00218774
184.35 0.00199233
184.36 0.00175758
184.37 0.00148945
184.38 0.00119192
184.39 0.000869321
184.4 0.000526599
184.41 0.000169219
184.42 -0.000196906
184.43 -0.000565512
184.44 -0.000929739
184.45 -0.0012818
184.46 -0.00161535
184.47 -0.00192383
184.48 -0.00220094
184.49 -0.00244071
184.5 -0.00263765
184.51 -0.00278682
184.52 -0.00288395
184.53 -0.00292144
184.54 -0.00289901
184.55 -0.00281643
184.56 -0.00267309
184.57 -0.00246933
184.58 -0.0022065
184.59 -0.00188692
184.6 -0.00151389
184.61 -0.00109097
184.62 -0.000621058
184.63 -0.000114083
184.64 0.000423181
184.65 0.000983369
184.66 0.00155863
184.67 0.00214077
184.68 0.00272136
184.69 0.00329187
184.7 0.00384235
184.71 0.00436384
184.72 0.00484925
184.73 0.00529123
184.74 0.00568305
184.75 0.00601869
184.76 0.00629299
184.77 0.00650173
184.78 0.00664169
184.79 0.00670392
184.8 0.00669416
184.81 0.00661279
184.82 0.0064613
184.83 0.0062423
184.84 0.00595946
184.85 0.00561748
184.86 0.005222
184.87 0.00477796
184.88 0.00429291
184.89 0.00377738
184.9 0.00323978
184.91 0.00268884
184.92 0.00213347
184.93 0.00158257
184.94 0.0010449
184.95 0.000528957
184.96 4.57276e-05
184.97 -0.000398572
184.98 -0.000797822
184.99 -0.00114625
185 -0.00143903
185.01 -0.00167231
185.02 -0.00184335
185.03 -0.0019505
185.04 -0.00199173
185.05 -0.00196485
185.06 -0.00187644
185.07 -0.00172954
185.08 -0.00152823
185.09 -0.00127748
185.1 -0.00098309
185.11 -0.000651579
185.12 -0.000290039
185.13 9.48932e-05
185.14 0.000493754
185.15 0.000897846
185.16 0.00129919
185.17 0.00168998
185.18 0.00206274
185.19 0.00241048
185.2 0.00272679
185.21 0.00300563
185.22 0.00323844
185.23 0.00342477
185.24 0.00356187
185.25 0.00364805
185.26 0.00368267
185.27 0.00366614
185.28 0.00359997
185.29 0.00348667
185.3 0.00332785
185.31 0.00312857
185.32 0.0028962
185.33 0.00263675
185.34 0.00235675
185.35 0.00206314
185.36 0.00176313
185.37 0.00146404
185.38 0.00117314
185.39 0.000899451
185.4 0.000649031
185.41 0.000427909
185.42 0.000241598
185.43 9.48572e-05
185.44 -8.41086e-06
185.45 -6.52424e-05
185.46 -7.36817e-05
185.47 -3.12614e-05
185.48 6.31898e-05
185.49 0.000205054
185.5 0.000391741
185.51 0.000619638
185.52 0.000884179
185.53 0.00117992
185.54 0.00150064
185.55 0.00183946
185.56 0.00218918
185.57 0.00254064
185.58 0.00288556
185.59 0.00321586
185.6 0.00352356
185.61 0.00380099
185.62 0.0040409
185.63 0.00423664
185.64 0.00438136
185.65 0.00446614
185.66 0.00449109
185.67 0.00445343
185.68 0.00435151
185.69 0.0041849
185.7 0.00395438
185.71 0.00366197
185.72 0.00331088
185.73 0.00290282
185.74 0.00244502
185.75 0.00194631
185.76 0.00141432
185.77 0.000857469
185.78 0.000284764
185.79 -0.000294308
185.8 -0.000869962
185.81 -0.00143226
185.82 -0.00196826
185.83 -0.00246979
185.84 -0.00292771
185.85 -0.00333349
185.86 -0.00367937
185.87 -0.00395845
185.88 -0.00416489
185.89 -0.00429398
185.9 -0.00433889
185.91 -0.00429616
185.92 -0.00416967
185.93 -0.00396028
185.94 -0.00367018
185.95 -0.00330293
185.96 -0.00286332
185.97 -0.00235737
185.98 -0.00179218
185.99 -0.00117251
186 -0.000511544
186.01 0.000180181
186.02 0.000892401
186.03 0.00161453
186.04 0.00233585
186.05 0.00304566
186.06 0.00373351
186.07 0.00438828
186.08 0.00499759
186.09 0.0055552
186.1 0.0060534
186.11 0.00648552
186.12 0.00684602
186.13 0.00713057
186.14 0.00733612
186.15 0.00746093
186.16 0.00749947
186.17 0.00745569
186.18 0.00733459
186.19 0.00713993
186.2 0.00687664
186.21 0.00655066
186.22 0.0061689
186.23 0.00573906
186.24 0.00526923
186.25 0.00476686
186.26 0.00424447
186.27 0.00371146
186.28 0.00317717
186.29 0.00265077
186.3 0.00214103
186.31 0.00165621
186.32 0.00120396
186.33 0.000793303
186.34 0.000430733
186.35 0.000119116
186.36 -0.000137901
186.37 -0.000337789
186.38 -0.000479167
186.39 -0.000561798
186.4 -0.00058658
186.41 -0.000555506
186.42 -0.000467311
186.43 -0.000330773
186.44 -0.000151278
186.45 6.54058e-05
186.46 0.000312905
186.47 0.00058438
186.48 0.000872659
186.49 0.00117039
186.5 0.00146999
186.51 0.0017632
186.52 0.002043
186.53 0.00230285
186.54 0.00253677
186.55 0.00273941
186.56 0.00290616
186.57 0.00303326
186.58 0.00311782
186.59 0.00315459
186.6 0.00314486
186.61 0.00308983
186.62 0.00299064
186.63 0.00284934
186.64 0.00266887
186.65 0.00245293
186.66 0.00220592
186.67 0.00193253
186.68 0.00163768
186.69 0.00132931
186.7 0.0010136
186.71 0.00069689
186.72 0.000385443
186.73 8.53956e-05
186.74 -0.000197393
186.75 -0.000457448
186.76 -0.000687955
186.77 -0.000884621
186.78 -0.00104496
186.79 -0.00116615
186.8 -0.00124621
186.81 -0.00128394
186.82 -0.00127902
186.83 -0.00123196
186.84 -0.00114402
186.85 -0.00101407
186.86 -0.000848886
186.87 -0.000652149
186.88 -0.000428096
186.89 -0.000181448
186.9 8.26983e-05
186.91 0.000358971
186.92 0.000641837
186.93 0.000925519
186.94 0.00120378
186.95 0.00147132
186.96 0.00172316
186.97 0.00195475
186.98 0.002162
186.99 0.0023414
187 0.00249007
187.01 0.00260582
187.02 0.00268435
187.03 0.00272726
187.04 0.00273523
187.05 0.00270917
187.06 0.00265071
187.07 0.00256213
187.08 0.00244631
187.09 0.0023067
187.1 0.00214676
187.11 0.00197061
187.12 0.00178414
187.13 0.00159211
187.14 0.00139928
187.15 0.00121039
187.16 0.00103003
187.17 0.000862506
187.18 0.000711817
187.19 0.000583054
187.2 0.000478807
187.21 0.000400822
187.22 0.000350837
187.23 0.000329928
187.24 0.000338498
187.25 0.000376263
187.26 0.000442266
187.27 0.000535139
187.28 0.000654186
187.29 0.00079426
187.3 0.00095195
187.31 0.00112343
187.32 0.00130454
187.33 0.00149087
187.34 0.00167787
187.35 0.00186093
187.36 0.00203483
187.37 0.00219464
187.38 0.00233666
187.39 0.00245711
187.4 0.00255265
187.41 0.00262043
187.42 0.00265816
187.43 0.00266419
187.44 0.00263747
187.45 0.00257476
187.46 0.00247929
187.47 0.00235243
187.48 0.00219603
187.49 0.00201256
187.5 0.00180507
187.51 0.00157714
187.52 0.00133282
187.53 0.00107627
187.54 0.000812619
187.55 0.000547495
187.56 0.000285941
187.57 3.29841e-05
187.58 -0.000206455
187.59 -0.000427657
187.6 -0.000626197
187.61 -0.000798023
187.62 -0.000937083
187.63 -0.00104167
187.64 -0.00111008
187.65 -0.0011406
187.66 -0.00113219
187.67 -0.0010845
187.68 -0.000997852
187.69 -0.000873261
187.7 -0.000711783
187.71 -0.000514064
187.72 -0.000285851
187.73 -3.06571e-05
187.74 0.000247571
187.75 0.000544527
187.76 0.00085563
187.77 0.00117611
187.78 0.00150111
187.79 0.00182545
187.8 0.00214383
187.81 0.00245172
187.82 0.00274489
187.83 0.00301942
187.84 0.00327184
187.85 0.00349919
187.86 0.00369901
187.87 0.00386936
187.88 0.0040062
187.89 0.00411174
187.9 0.00418612
187.91 0.00423006
187.92 0.00424485
187.93 0.00423234
187.94 0.00419486
187.95 0.00413515
187.96 0.00405568
187.97 0.00396015
187.98 0.00385321
187.99 0.0037386
188 0.00362011
188.01 0.00350143
188.02 0.00338614
188.03 0.00327757
188.04 0.00317874
188.05 0.00309352
188.06 0.00302342
188.07 0.0029699
188.08 0.00293407
188.09 0.00291648
188.1 0.00291714
188.11 0.00293546
188.12 0.00297032
188.13 0.00302041
188.14 0.00308381
188.15 0.00315684
188.16 0.00323642
188.17 0.0033192
188.18 0.00340156
188.19 0.00347975
188.2 0.00354996
188.21 0.00360836
188.22 0.00364999
188.23 0.0036716
188.24 0.00367047
188.25 0.00364383
188.26 0.00358934
188.27 0.00350518
188.28 0.00339006
188.29 0.00324332
188.3 0.00306459
188.31 0.00285236
188.32 0.00261071
188.33 0.00234172
188.34 0.0020481
188.35 0.00173314
188.36 0.00140069
188.37 0.00105507
188.38 0.000701016
188.39 0.000343729
188.4 -1.07426e-05
188.41 -0.000356762
188.42 -0.000688769
188.43 -0.00100126
188.44 -0.0012889
188.45 -0.00154658
188.46 -0.00176958
188.47 -0.00195357
188.48 -0.00209064
188.49 -0.00218109
188.5 -0.00222275
188.51 -0.00221398
188.52 -0.00215391
188.53 -0.00204244
188.54 -0.00188029
188.55 -0.00166898
188.56 -0.00140927
188.57 -0.00110361
188.58 -0.000758691
188.59 -0.000379099
188.6 3.00147e-05
188.61 0.000462997
188.62 0.000913786
188.63 0.001376
188.64 0.00184305
188.65 0.00230756
188.66 0.00276228
188.67 0.00320069
188.68 0.00361643
188.69 0.0040035
188.7 0.00435632
188.71 0.00466981
188.72 0.0049395
188.73 0.00516057
188.74 0.00532685
188.75 0.0054398
188.76 0.00549808
188.77 0.00550116
188.78 0.00544935
188.79 0.00534374
188.8 0.00518623
188.81 0.00497948
188.82 0.00472437
188.83 0.0044265
188.84 0.00409218
188.85 0.00372657
188.86 0.00333521
188.87 0.00292393
188.88 0.00249875
188.89 0.0020658
188.9 0.00163122
188.91 0.00120196
188.92 0.000783852
188.93 0.000382344
188.94 2.50163e-06
188.95 -0.000351078
188.96 -0.000674323
188.97 -0.000963748
188.98 -0.00121649
188.99 -0.00142861
189 -0.00159815
189.01 -0.00172647
189.02 -0.00181357
189.03 -0.00186016
189.04 -0.00186753
189.05 -0.00183762
189.06 -0.00177288
189.07 -0.00167625
189.08 -0.00154905
189.09 -0.00139741
189.1 -0.0012257
189.11 -0.00103811
189.12 -0.000838945
189.13 -0.000632493
189.14 -0.000422975
189.15 -0.000214458
189.16 -1.10175e-05
189.17 0.000183109
189.18 0.000365188
189.19 0.000532543
189.2 0.00068296
189.21 0.00081472
189.22 0.000926616
189.23 0.00101796
189.24 0.00108861
189.25 0.00113761
189.26 0.00116679
189.27 0.00117812
189.28 0.00117346
189.29 0.001155
189.3 0.00112526
189.31 0.00108701
189.32 0.0010432
189.33 0.000996893
189.34 0.000951559
189.35 0.000910418
189.36 0.000876405
189.37 0.00085227
189.38 0.00084051
189.39 0.000843314
189.4 0.000862507
189.41 0.00089951
189.42 0.000956294
189.43 0.0010332
189.44 0.0011293
189.45 0.001244
189.46 0.0013762
189.47 0.0015243
189.48 0.00168628
189.49 0.00185966
189.5 0.00204159
189.51 0.00222907
189.52 0.00241784
189.53 0.00260418
189.54 0.00278426
189.55 0.00295418
189.56 0.0031101
189.57 0.00324823
189.58 0.003365
189.59 0.00345606
189.6 0.00351743
189.61 0.00354804
189.62 0.0035458
189.63 0.00350912
189.64 0.00343697
189.65 0.00332887
189.66 0.00318497
189.67 0.003006
189.68 0.00279094
189.69 0.00254393
189.7 0.00226828
189.71 0.00196721
189.72 0.00164444
189.73 0.00130411
189.74 0.000950757
189.75 0.000589235
189.76 0.000224673
189.77 -0.000136996
189.78 -0.000490295
189.79 -0.000829956
189.8 -0.00115084
189.81 -0.00144803
189.82 -0.00171691
189.83 -0.00195325
189.84 -0.00215325
189.85 -0.00231115
189.86 -0.00242505
189.87 -0.00249448
189.88 -0.00251825
189.89 -0.00249592
189.9 -0.00242776
189.91 -0.00231477
189.92 -0.00215869
189.93 -0.0019618
189.94 -0.0017244
189.95 -0.00145399
189.96 -0.00115502
189.97 -0.000832439
189.98 -0.000491603
189.99 -0.000138199
190 0.000221844
190.01 0.000582453
190.02 0.000936985
190.03 0.00127855
190.04 0.00160162
190.05 0.00190062
190.06 0.00217034
190.07 0.00240604
190.08 0.00260354
190.09 0.00275923
190.1 0.00287023
190.11 0.00293031
190.12 0.00294149
190.13 0.00290388
190.14 0.00281787
190.15 0.0026847
190.16 0.00250637
190.17 0.00228566
190.18 0.00202608
190.19 0.00173095
190.2 0.00140456
190.21 0.00105454
190.22 0.000686734
190.23 0.000307267
190.24 -7.75097e-05
190.25 -0.000461139
190.26 -0.000837167
190.27 -0.00119925
190.28 -0.00153951
190.29 -0.00185242
190.3 -0.0021333
190.31 -0.00237743
190.32 -0.00258075
190.33 -0.00273988
190.34 -0.00285221
190.35 -0.00291593
190.36 -0.00292943
190.37 -0.0028893
190.38 -0.00280055
190.39 -0.00266502
190.4 -0.00248536
190.41 -0.00226499
190.42 -0.00200808
190.43 -0.00171943
190.44 -0.00140442
190.45 -0.00106819
190.46 -0.000717986
190.47 -0.000361203
190.48 -4.51365e-06
190.49 0.000345398
190.5 0.000681961
190.51 0.000998836
190.52 0.00129002
190.53 0.00154998
190.54 0.00176999
190.55 0.00194871
190.56 0.00208282
190.57 0.00216971
190.58 0.00220763
190.59 0.00219574
190.6 0.00213413
190.61 0.00202381
190.62 0.00186509
190.63 0.00166035
190.64 0.00141612
190.65 0.00113702
190.66 0.000828366
190.67 0.000496083
190.68 0.000146582
190.69 -0.000213336
190.7 -0.000576602
190.71 -0.000935146
190.72 -0.00128128
190.73 -0.00160804
190.74 -0.00190864
190.75 -0.00217672
190.76 -0.00240641
190.77 -0.0025925
190.78 -0.0027305
190.79 -0.00281558
190.8 -0.00284193
190.81 -0.00281179
190.82 -0.00272458
190.83 -0.00258073
190.84 -0.00238169
190.85 -0.00212995
190.86 -0.00182896
190.87 -0.00148307
190.88 -0.00109551
190.89 -0.000674131
190.9 -0.000227086
190.91 0.000238262
190.92 0.000714131
190.93 0.00119246
190.94 0.00166504
190.95 0.00212367
190.96 0.00256008
190.97 0.00296329
190.98 0.0033281
190.99 0.00364783
191 0.0039165
191.01 0.00412891
191.02 0.00428079
191.03 0.00436884
191.04 0.00439077
191.05 0.00434237
191.06 0.00422343
191.07 0.00403859
191.08 0.00379025
191.09 0.00348189
191.1 0.00311801
191.11 0.00270402
191.12 0.0022462
191.13 0.00175158
191.14 0.00122603
191.15 0.000680673
191.16 0.000124384
191.17 -0.000434068
191.18 -0.00098587
191.19 -0.00152232
191.2 -0.00203495
191.21 -0.00251571
191.22 -0.00295568
191.23 -0.00334564
191.24 -0.00368229
191.25 -0.00396061
191.26 -0.00417653
191.27 -0.00432703
191.28 -0.00441015
191.29 -0.00442505
191.3 -0.004372
191.31 -0.00424793
191.32 -0.0040586
191.33 -0.00380937
191.34 -0.00350487
191.35 -0.00315056
191.36 -0.00275265
191.37 -0.00231796
191.38 -0.00185387
191.39 -0.0013679
191.4 -0.00086797
191.41 -0.000363803
191.42 0.000136593
191.43 0.00062542
191.44 0.00109521
191.45 0.00153897
191.46 0.00195027
191.47 0.00232334
191.48 0.00265067
191.49 0.00292823
191.5 0.00315479
191.51 0.00332824
191.52 0.00344742
191.53 0.00351214
191.54 0.00352314
191.55 0.00348204
191.56 0.00339135
191.57 0.00325038
191.58 0.00306778
191.59 0.00284832
191.6 0.0025972
191.61 0.00231996
191.62 0.00202241
191.63 0.00171051
191.64 0.0013902
191.65 0.00106748
191.66 0.00074871
191.67 0.000439222
191.68 0.000143814
191.69 -0.000133236
191.7 -0.000388241
191.71 -0.000618164
191.72 -0.000820657
191.73 -0.000994086
191.74 -0.00113521
191.75 -0.00124576
191.76 -0.0013269
191.77 -0.00137999
191.78 -0.00140694
191.79 -0.00141022
191.8 -0.00139274
191.81 -0.00135781
191.82 -0.00130877
191.83 -0.00124929
191.84 -0.00118417
191.85 -0.0011172
191.86 -0.00105202
191.87 -0.000992027
191.88 -0.000940303
191.89 -0.000899509
191.9 -0.000871837
191.91 -0.000859927
191.92 -0.00086446
191.93 -0.000885272
191.94 -0.000922062
191.95 -0.000973908
191.96 -0.00103929
191.97 -0.00111612
191.98 -0.00120178
191.99 -0.00129323
192 -0.00138683
192.01 -0.00147831
192.02 -0.00156368
192.03 -0.00163887
192.04 -0.00169981
192.05 -0.00174259
192.06 -0.0017635
192.07 -0.00175919
192.08 -0.00172527
192.09 -0.00165905
192.1 -0.00156021
192.11 -0.00142775
192.12 -0.00126141
192.13 -0.00106166
192.14 -0.000829772
192.15 -0.000567794
192.16 -0.00027854
192.17 3.61056e-05
192.18 0.000369605
192.19 0.000716757
192.2 0.00107205
192.21 0.00142953
192.22 0.00178296
192.23 0.00212587
192.24 0.00245173
192.25 0.00275313
192.26 0.00302207
192.27 0.00325422
192.28 0.00344415
192.29 0.00358702
192.3 0.0036787
192.31 0.00371583
192.32 0.00369595
192.33 0.00361756
192.34 0.00347603
192.35 0.00327481
192.36 0.00301716
192.37 0.00270595
192.38 0.00234504
192.39 0.00193927
192.4 0.00149433
192.41 0.00101675
192.42 0.000513454
192.43 -8.04979e-06
192.44 -0.000537548
192.45 -0.0010665
192.46 -0.00158627
192.47 -0.00208826
192.48 -0.00256412
192.49 -0.00300584
192.5 -0.00340594
192.51 -0.00375465
192.52 -0.00404605
192.53 -0.00427726
192.54 -0.00444449
192.55 -0.00454506
192.56 -0.0045775
192.57 -0.00454155
192.58 -0.00443821
192.59 -0.00426972
192.6 -0.00403415
192.61 -0.00374242
192.62 -0.00340049
192.63 -0.00301522
192.64 -0.00259434
192.65 -0.00214624
192.66 -0.00167988
192.67 -0.0012046
192.68 -0.000730359
192.69 -0.000268076
192.7 0.000172988
192.71 0.000583831
192.72 0.000955998
192.73 0.00128174
192.74 0.00155415
192.75 0.00176734
192.76 0.00191651
192.77 0.00199258
192.78 0.00199748
192.79 0.00193166
192.8 0.00179586
192.81 0.00159218
192.82 0.00132407
192.83 0.000996251
192.84 0.000614653
192.85 0.000185415
192.86 -0.000284319
192.87 -0.000782283
192.88 -0.00129883
192.89 -0.00182386
192.9 -0.002347
192.91 -0.0028578
192.92 -0.00334594
192.93 -0.00380139
192.94 -0.00421142
192.95 -0.00456763
192.96 -0.00486363
192.97 -0.00509273
192.98 -0.00524939
192.99 -0.00532937
193 -0.0053298
193.01 -0.00524924
193.02 -0.00508712
193.03 -0.00483902
193.04 -0.00451527
193.05 -0.00412063
193.06 -0.00366117
193.07 -0.00314421
193.08 -0.00257813
193.09 -0.0019723
193.1 -0.00133687
193.11 -0.000682276
193.12 -2.1191e-05
193.13 0.00063413
193.14 0.00127229
193.15 0.00188212
193.16 0.00245292
193.17 0.00297457
193.18 0.00343781
193.19 0.00383432
193.2 0.00415
193.21 0.00438448
193.22 0.00453412
193.23 0.00459617
193.24 0.00456938
193.25 0.00445404
193.26 0.00425195
193.27 0.00396643
193.28 0.0035999
193.29 0.00315704
193.3 0.00265032
193.31 0.00208839
193.32 0.00148077
193.33 0.000837728
193.34 0.000170071
193.35 -0.000511047
193.36 -0.00119432
193.37 -0.00186706
193.38 -0.00251764
193.39 -0.0031359
193.4 -0.00371214
193.41 -0.00423748
193.42 -0.00470409
193.43 -0.00510524
193.44 -0.00543549
193.45 -0.00568946
193.46 -0.00585946
193.47 -0.0059505
193.48 -0.00596312
193.49 -0.00589927
193.5 -0.00576228
193.51 -0.00555679
193.52 -0.00528864
193.53 -0.00496477
193.54 -0.0045909
193.55 -0.00417761
193.56 -0.00373613
193.57 -0.00327627
193.58 -0.00280802
193.59 -0.00234141
193.6 -0.00188627
193.61 -0.00145209
193.62 -0.00104785
193.63 -0.000686078
193.64 -0.000371004
193.65 -0.000108799
193.66 9.54883e-05
193.67 0.000238016
193.68 0.000316213
193.69 0.000328816
193.7 0.000275884
193.71 0.000156329
193.72 -2.76152e-05
193.73 -0.000268332
193.74 -0.000560584
193.75 -0.000898137
193.76 -0.00127389
193.77 -0.00168001
193.78 -0.00210809
193.79 -0.00254931
193.8 -0.0029942
193.81 -0.00343254
193.82 -0.00385531
193.83 -0.00425388
193.84 -0.00462011
193.85 -0.00494648
193.86 -0.00522625
193.87 -0.00545356
193.88 -0.00562209
193.89 -0.005725
193.9 -0.005764
193.91 -0.00573799
193.92 -0.00564703
193.93 -0.00549241
193.94 -0.00527659
193.95 -0.00500312
193.96 -0.00467664
193.97 -0.00430008
193.98 -0.00388226
193.99 -0.00343187
194 -0.00295674
194.01 -0.00246507
194.02 -0.00196532
194.03 -0.00146603
194.04 -0.000975676
194.05 -0.000502733
194.06 -5.77602e-05
194.07 0.000353595
194.08 0.000724762
194.09 0.00104995
194.1 0.00132424
194.11 0.00154366
194.12 0.00170524
194.13 0.00180709
194.14 0.00184543
194.15 0.00182079
194.16 0.0017375
194.17 0.00159807
194.18 0.00140596
194.19 0.0011655
194.2 0.000881778
194.21 0.000560553
194.22 0.000208143
194.23 -0.000170218
194.24 -0.000564862
194.25 -0.000968378
194.26 -0.00137351
194.27 -0.0017731
194.28 -0.00216027
194.29 -0.00252845
194.3 -0.00287157
194.31 -0.00318294
194.32 -0.00345615
194.33 -0.00368915
194.34 -0.00387873
194.35 -0.00402251
194.36 -0.00411893
194.37 -0.00416727
194.38 -0.00416763
194.39 -0.00412094
194.4 -0.00402577
194.41 -0.00388709
194.42 -0.0037091
194.43 -0.00349549
194.44 -0.00325046
194.45 -0.00297855
194.46 -0.00268461
194.47 -0.00237365
194.48 -0.00205069
194.49 -0.00172097
194.5 -0.00139035
194.51 -0.00106362
194.52 -0.000745314
194.53 -0.000439631
194.54 -0.000150374
194.55 0.00011909
194.56 0.000365867
194.57 0.000586031
194.58 0.000778015
194.59 0.000941532
194.6 0.00107583
194.61 0.00118066
194.62 0.00125619
194.63 0.00130304
194.64 0.00132218
194.65 0.00131489
194.66 0.00128064
194.67 0.00122371
194.68 0.00114609
194.69 0.00104988
194.7 0.000937215
194.71 0.000810215
194.72 0.000670966
194.73 0.000521462
194.74 0.000363308
194.75 0.000198341
194.76 2.8516e-05
194.77 -0.000144829
194.78 -0.000320537
194.79 -0.00049763
194.8 -0.0006753
194.81 -0.000852889
194.82 -0.00102987
194.83 -0.00120572
194.84 -0.00138013
194.85 -0.00155282
194.86 -0.00172352
194.87 -0.00189191
194.88 -0.00205764
194.89 -0.00222024
194.9 -0.00237918
194.91 -0.00253366
194.92 -0.00268254
194.93 -0.00282513
194.94 -0.00296033
194.95 -0.00308687
194.96 -0.00320338
194.97 -0.00330837
194.98 -0.00340031
194.99 -0.00347759
195 -0.00353749
195.01 -0.00357886
195.02 -0.00360077
195.03 -0.00360191
195.04 -0.00358121
195.05 -0.00353779
195.06 -0.00347109
195.07 -0.00338085
195.08 -0.00326697
195.09 -0.00312831
195.1 -0.00296786
195.11 -0.00278707
195.12 -0.00258782
195.13 -0.00237239
195.14 -0.00214352
195.15 -0.00190431
195.16 -0.0016582
195.17 -0.00140901
195.18 -0.00116132
195.19 -0.000919487
195.2 -0.000687862
195.21 -0.000470822
195.22 -0.000272694
195.23 -9.7669e-05
195.24 5.0279e-05
195.25 0.000167478
195.26 0.000247365
195.27 0.000289784
195.28 0.000292775
195.29 0.000254788
195.3 0.000174939
195.31 5.30435e-05
195.32 -0.000110347
195.33 -0.000313933
195.34 -0.000556846
195.35 -0.000836828
195.36 -0.0011479
195.37 -0.00148572
195.38 -0.00184533
195.39 -0.00222125
195.4 -0.00260751
195.41 -0.0029978
195.42 -0.00338552
195.43 -0.00376274
195.44 -0.00412247
195.45 -0.00445822
195.46 -0.00476354
195.47 -0.00503228
195.48 -0.00525877
195.49 -0.00543787
195.5 -0.00556511
195.51 -0.0056357
195.52 -0.00564312
195.53 -0.00558987
195.54 -0.0054751
195.55 -0.00529894
195.56 -0.00506254
195.57 -0.00476801
195.58 -0.00441843
195.59 -0.00401783
195.6 -0.00356878
195.61 -0.0030787
195.62 -0.00255584
195.63 -0.00200735
195.64 -0.00144086
195.65 -0.000864364
195.66 -0.000286052
195.67 0.000285778
195.68 0.00084282
195.69 0.00137423
195.7 0.00187385
195.71 0.00233451
195.72 0.00274966
195.73 0.00311345
195.74 0.00342084
195.75 0.00366767
195.76 0.00385076
195.77 0.00396509
195.78 0.00400882
195.79 0.00398557
195.8 0.00389658
195.81 0.00374406
195.82 0.00353122
195.83 0.00326219
195.84 0.00294193
195.85 0.00257615
195.86 0.00216855
195.87 0.00172939
195.88 0.00126651
195.89 0.000787491
195.9 0.000300002
195.91 -0.000188313
195.92 -0.000669978
195.93 -0.00113781
195.94 -0.00158433
195.95 -0.00200154
195.96 -0.00238547
195.97 -0.00273143
195.98 -0.00303552
195.99 -0.00329473
196 -0.00350693
196.01 -0.00367092
196.02 -0.00378643
196.03 -0.00385105
196.04 -0.00386837
196.05 -0.00384228
196.06 -0.00377605
196.07 -0.00367364
196.08 -0.00353956
196.09 -0.00337878
196.1 -0.00319667
196.11 -0.00299871
196.12 -0.00279049
196.13 -0.00257897
196.14 -0.00236972
196.15 -0.00216808
196.16 -0.00197902
196.17 -0.00180708
196.18 -0.00165624
196.19 -0.00152988
196.2 -0.00143221
196.21 -0.0013652
196.22 -0.00132872
196.23 -0.0013231
196.24 -0.00134791
196.25 -0.001402
196.26 -0.00148352
196.27 -0.00158998
196.28 -0.00171834
196.29 -0.0018663
196.3 -0.00202796
196.31 -0.00219888
196.32 -0.00237451
196.33 -0.00255022
196.34 -0.00272138
196.35 -0.0028835
196.36 -0.00303231
196.37 -0.00316309
196.38 -0.00327141
196.39 -0.00335536
196.4 -0.00341258
196.41 -0.00344129
196.42 -0.00344038
196.43 -0.00340942
196.44 -0.00334868
196.45 -0.0032591
196.46 -0.00314047
196.47 -0.00299681
196.48 -0.00283164
196.49 -0.00264844
196.5 -0.00245111
196.51 -0.00224393
196.52 -0.00203141
196.53 -0.00181823
196.54 -0.00160934
196.55 -0.00141042
196.56 -0.00122564
196.57 -0.00105928
196.58 -0.000915233
196.59 -0.000796978
196.6 -0.000707472
196.61 -0.000649091
196.62 -0.000623578
196.63 -0.000634011
196.64 -0.000679925
196.65 -0.000759572
196.66 -0.000871717
196.67 -0.00101443
196.68 -0.00118514
196.69 -0.00138063
196.7 -0.00159715
196.71 -0.00183052
196.72 -0.00207669
196.73 -0.00232918
196.74 -0.0025828
196.75 -0.00283226
196.76 -0.00307228
196.77 -0.0032977
196.78 -0.00350356
196.79 -0.00368522
196.8 -0.00383705
196.81 -0.00395461
196.82 -0.00403633
196.83 -0.00407978
196.84 -0.00408321
196.85 -0.0040456
196.86 -0.00396664
196.87 -0.00384678
196.88 -0.0036872
196.89 -0.00348689
196.9 -0.00325143
196.91 -0.00298461
196.92 -0.00269033
196.93 -0.00237299
196.94 -0.00203737
196.95 -0.00168858
196.96 -0.00133195
196.97 -0.000973032
196.98 -0.000618059
196.99 -0.000272528
197 5.83564e-05
197.01 0.000369669
197.02 0.000656842
197.03 0.000915745
197.04 0.00114275
197.05 0.00133478
197.06 0.00148676
197.07 0.00159821
197.08 0.00166918
197.09 0.00169933
197.1 0.00168899
197.11 0.0016391
197.12 0.00155126
197.13 0.00142759
197.14 0.00127042
197.15 0.00108109
197.16 0.000865901
197.17 0.000628737
197.18 0.000373702
197.19 0.000105038
197.2 -0.000172953
197.21 -0.000455995
197.22 -0.000739911
197.23 -0.00102033
197.24 -0.00129309
197.25 -0.00155495
197.26 -0.0018029
197.27 -0.00203432
197.28 -0.00224706
197.29 -0.00243938
197.3 -0.00261007
197.31 -0.00275835
197.32 -0.00288187
197.33 -0.00298286
197.34 -0.00306205
197.35 -0.0031205
197.36 -0.00315959
197.37 -0.00318096
197.38 -0.00318651
197.39 -0.00317831
197.4 -0.00315821
197.41 -0.0031285
197.42 -0.00309206
197.43 -0.00305106
197.44 -0.00300754
197.45 -0.00296334
197.46 -0.00292015
197.47 -0.00287937
197.48 -0.00284216
197.49 -0.00280975
197.5 -0.00278249
197.51 -0.00276047
197.52 -0.0027436
197.53 -0.0027315
197.54 -0.00272356
197.55 -0.0027189
197.56 -0.00271649
197.57 -0.00271509
197.58 -0.00271322
197.59 -0.00270942
197.6 -0.00270225
197.61 -0.00269034
197.62 -0.00267237
197.63 -0.00264714
197.64 -0.00261361
197.65 -0.00257092
197.66 -0.00251783
197.67 -0.00245415
197.68 -0.00238016
197.69 -0.00229603
197.7 -0.0022022
197.71 -0.00209937
197.72 -0.00198847
197.73 -0.00187069
197.74 -0.00174736
197.75 -0.00161983
197.76 -0.00149026
197.77 -0.00136043
197.78 -0.00123212
197.79 -0.00110713
197.8 -0.000987194
197.81 -0.000873969
197.82 -0.000768962
197.83 -0.000673985
197.84 -0.000590352
197.85 -0.000518407
197.86 -0.000458722
197.87 -0.00041159
197.88 -0.000377018
197.89 -0.000354725
197.9 -0.000344149
197.91 -0.000344462
197.92 -0.000355299
197.93 -0.000374508
197.94 -0.000400465
197.95 -0.000431517
197.96 -0.000465918
197.97 -0.000501877
197.98 -0.000537604
197.99 -0.000571361
198 -0.00060136
198.01 -0.000625772
198.02 -0.000643601
198.03 -0.000653842
198.04 -0.000655765
198.05 -0.000648939
198.06 -0.000633258
198.07 -0.000608948
198.08 -0.000576574
198.09 -0.000536634
198.1 -0.000490818
198.11 -0.0004409
198.12 -0.000388727
198.13 -0.000336367
198.14 -0.000286062
198.15 -0.00024018
198.16 -0.000201155
198.17 -0.00017158
198.18 -0.000154882
198.19 -0.000152496
198.2 -0.000166452
198.21 -0.000198521
198.22 -0.000250157
198.23 -0.000322449
198.24 -0.000416075
198.25 -0.000531265
198.26 -0.000668845
198.27 -0.000827696
198.28 -0.00100555
198.29 -0.00120054
198.3 -0.00141031
198.31 -0.00163206
198.32 -0.00186254
198.33 -0.00209817
198.34 -0.00233503
198.35 -0.00256827
198.36 -0.00279345
198.37 -0.00300612
198.38 -0.00320186
198.39 -0.00337633
198.4 -0.00352536
198.41 -0.00364508
198.42 -0.00373195
198.43 -0.00378147
198.44 -0.00378999
198.45 -0.00375775
198.46 -0.00368354
198.47 -0.00356681
198.48 -0.00340774
198.49 -0.00320724
198.5 -0.00296697
198.51 -0.0026893
198.52 -0.00237498
198.53 -0.0020302
198.54 -0.00166006
198.55 -0.00126959
198.56 -0.000864252
198.57 -0.00044988
198.58 -3.25727e-05
198.59 0.000381408
198.6 0.000785399
198.61 0.00117164
198.62 0.00153487
198.63 0.00186936
198.64 0.00216979
198.65 0.00243135
198.66 0.00264985
198.67 0.00282175
198.68 0.0029443
198.69 0.00301236
198.7 0.0030262
198.71 0.00298757
198.72 0.00289734
198.73 0.0027573
198.74 0.00257008
198.75 0.00233913
198.76 0.00206865
198.77 0.00176341
198.78 0.00142707
198.79 0.00106877
198.8 0.000695026
198.81 0.000312595
198.82 -7.16133e-05
198.83 -0.000450676
198.84 -0.000817781
198.85 -0.00116634
198.86 -0.00148875
198.87 -0.00177844
198.88 -0.00203163
198.89 -0.00224399
198.9 -0.00241192
198.91 -0.0025327
198.92 -0.00260445
198.93 -0.00262626
198.94 -0.0025981
198.95 -0.00251695
198.96 -0.00238859
198.97 -0.00221648
198.98 -0.00200435
198.99 -0.0017567
199 -0.00147868
199.01 -0.00117601
199.02 -0.000854853
199.03 -0.000521574
199.04 -0.000183492
199.05 0.00015187
199.06 0.000477779
199.07 0.000787708
199.08 0.00107545
199.09 0.00133525
199.1 0.00156187
199.11 0.00175077
199.12 0.00189501
199.13 0.00199317
199.14 0.00204437
199.15 0.00204754
199.16 0.00200255
199.17 0.00191019
199.18 0.00177217
199.19 0.00159104
199.2 0.00136971
199.21 0.00111046
199.22 0.000821416
199.23 0.000508097
199.24 0.000176475
199.25 -0.000167146
199.26 -0.000516249
199.27 -0.000864227
199.28 -0.00120451
199.29 -0.0015296
199.3 -0.00183285
199.31 -0.00210925
199.32 -0.00235374
199.33 -0.00256184
199.34 -0.00272984
199.35 -0.00285475
199.36 -0.00293444
199.37 -0.00296764
199.38 -0.00294967
199.39 -0.0028855
199.4 -0.0027768
199.41 -0.00262599
199.42 -0.00243628
199.43 -0.00221161
199.44 -0.00195653
199.45 -0.00167618
199.46 -0.00137562
199.47 -0.00106124
199.48 -0.000740291
199.49 -0.000419024
199.5 -0.000103641
199.51 0.000199818
199.52 0.000485587
199.53 0.000748283
199.54 0.000983008
199.55 0.00118266
199.56 0.00134525
199.57 0.00146859
199.58 0.00155069
199.59 0.00159038
199.6 0.0015873
199.61 0.00154194
199.62 0.00145561
199.63 0.00132959
199.64 0.00116528
199.65 0.000969115
199.66 0.000745322
199.67 0.000498627
199.68 0.000234158
199.69 -4.26582e-05
199.7 -0.000326201
199.71 -0.000610767
199.72 -0.000890037
199.73 -0.00115801
199.74 -0.00140963
199.75 -0.00164004
199.76 -0.00184484
199.77 -0.00202015
199.78 -0.00216271
199.79 -0.00226991
199.8 -0.00233959
199.81 -0.00236741
199.82 -0.00235642
199.83 -0.00230712
199.84 -0.00222073
199.85 -0.00209916
199.86 -0.00194497
199.87 -0.00176129
199.88 -0.0015518
199.89 -0.00131982
199.9 -0.00107037
199.91 -0.000809254
199.92 -0.000541386
199.93 -0.000271718
199.94 -5.15056e-06
199.95 0.000253568
199.96 0.00049993
199.97 0.000729758
199.98 0.000937258
199.99 0.00112049
200 0.001277
